SiGeH16                                 
   1.00000000000000     
    20.0000000000000000    0.0000000000000000    0.0000000000000000
     0.0000000000000000   20.0000000000000000    0.0000000000000000
     0.0000000000000000    0.0000000000000000   20.0000000000000000
   Si   Ge   H 
     5     5    16
Direct
  0.4738499002658401  0.5560878232596309  0.3850193956264576
  0.3695998518372221  0.5390319877428951  0.4366900924678774
  0.3840189592620860  0.5150434005004669  0.5509050408513332
  0.5580956230859826  0.4320722032061468  0.5122895397437475
  0.5473078862822263  0.6245999639713844  0.5540900474011181
  0.5414272643118281  0.4572710769210815  0.3960940567518207
  0.5307366642049161  0.6480757488017730  0.4375191206334250
  0.6133921906975104  0.5247923308547939  0.5651696148958365
  0.4507467356173791  0.4158360090613087  0.5635461501928702
  0.4400580149811475  0.6066408205374572  0.6049735630053377
  0.4145522612641344  0.3551097361586173  0.5308195364700481
  0.4594773578408677  0.3993817656689345  0.6391751089108695
  0.5997797149927067  0.3700825692999032  0.5195193724100875
  0.6834425827402768  0.5357313789448099  0.5328333309048787
  0.6250965741130869  0.5090727164929874  0.6405901979018083
  0.6101081733684737  0.4682281028506239  0.3610268445415272
  0.5067532096672949  0.3972356505188515  0.3605664110178282
  0.4639829084983944  0.5713458529788440  0.3121765366367271
  0.5822822425046112  0.6821222747594646  0.5872625496803821
  0.4487356510920648  0.5911777832427276  0.6808176023061066
  0.3968500310894427  0.6712284680618765  0.5994562362288534
  0.3171619224345292  0.5042589617906188  0.5833080980313952
  0.3338592610567090  0.4822356237386742  0.4032887237538034
  0.3272338196156284  0.6003840283309216  0.4289233836741175
  0.4890552996030877  0.7133613074425682  0.4291902702917412
  0.5993658995725539  0.6599924148626286  0.4016661756699852
 
  0.00000000E+00  0.00000000E+00  0.00000000E+00
  0.00000000E+00  0.00000000E+00  0.00000000E+00
  0.00000000E+00  0.00000000E+00  0.00000000E+00
  0.00000000E+00  0.00000000E+00  0.00000000E+00
  0.00000000E+00  0.00000000E+00  0.00000000E+00
  0.00000000E+00  0.00000000E+00  0.00000000E+00
  0.00000000E+00  0.00000000E+00  0.00000000E+00
  0.00000000E+00  0.00000000E+00  0.00000000E+00
  0.00000000E+00  0.00000000E+00  0.00000000E+00
  0.00000000E+00  0.00000000E+00  0.00000000E+00
  0.00000000E+00  0.00000000E+00  0.00000000E+00
  0.00000000E+00  0.00000000E+00  0.00000000E+00
  0.00000000E+00  0.00000000E+00  0.00000000E+00
  0.00000000E+00  0.00000000E+00  0.00000000E+00
  0.00000000E+00  0.00000000E+00  0.00000000E+00
  0.00000000E+00  0.00000000E+00  0.00000000E+00
  0.00000000E+00  0.00000000E+00  0.00000000E+00
  0.00000000E+00  0.00000000E+00  0.00000000E+00
  0.00000000E+00  0.00000000E+00  0.00000000E+00
  0.00000000E+00  0.00000000E+00  0.00000000E+00
  0.00000000E+00  0.00000000E+00  0.00000000E+00
  0.00000000E+00  0.00000000E+00  0.00000000E+00
  0.00000000E+00  0.00000000E+00  0.00000000E+00
  0.00000000E+00  0.00000000E+00  0.00000000E+00
  0.00000000E+00  0.00000000E+00  0.00000000E+00
  0.00000000E+00  0.00000000E+00  0.00000000E+00
