SiGeH16                                 
   1.00000000000000     
    20.0000000000000000    0.0000000000000000    0.0000000000000000
     0.0000000000000000   20.0000000000000000    0.0000000000000000
     0.0000000000000000    0.0000000000000000   20.0000000000000000
   Si   Ge   H 
     4     6    16
Direct
  0.4737992336514844  0.5561945717620158  0.3845106583417691
  0.3688085380451319  0.5394363808793270  0.4346192194639551
  0.5584265938024474  0.4317557084754672  0.5123667498727617
  0.5476027999121817  0.6248905921941350  0.5542997040615809
  0.5412173007010680  0.4572201578114054  0.3962123176168102
  0.5305224979368586  0.6480498362863008  0.4376438582674958
  0.3831562899105936  0.5148992108411100  0.5513330565006502
  0.6131918927004231  0.5247675295584927  0.5652400012029398
  0.4515680029810924  0.4138044957428136  0.5640582344402973
  0.4406694133729670  0.6083499549228230  0.6063023339005505
  0.4151567809003661  0.3532310476306572  0.5312377448374521
  0.4602029894637705  0.3975728855283160  0.6397448737421947
  0.6009462663396312  0.3702680870896941  0.5189082948947189
  0.6832372804694397  0.5357022618123520  0.5329213937079993
  0.6251394038143512  0.5090769997552955  0.6405949492835852
  0.6099307412510990  0.4682156493261096  0.3611429886046272
  0.5067384360830903  0.3971500496339204  0.3604842113964541
  0.4652020357064708  0.5715527262670966  0.3115354910074579
  0.5834439379769664  0.6823355271233807  0.5866550187137640
  0.4492732728188606  0.5926540349841360  0.6821064361542586
  0.3972636474338107  0.6728154970136486  0.6006278871981493
  0.3137215361438826  0.5036449754880695  0.5852293899011106
  0.3330801482251450  0.4826053015691528  0.4012770291506879
  0.3264556686992723  0.6007974730711170  0.4269387290064198
  0.4890268886468770  0.7134700209726530  0.4291518211075422
  0.5991884030127123  0.6599390242605149  0.4027746076247652
 
  0.00000000E+00  0.00000000E+00  0.00000000E+00
  0.00000000E+00  0.00000000E+00  0.00000000E+00
  0.00000000E+00  0.00000000E+00  0.00000000E+00
  0.00000000E+00  0.00000000E+00  0.00000000E+00
  0.00000000E+00  0.00000000E+00  0.00000000E+00
  0.00000000E+00  0.00000000E+00  0.00000000E+00
  0.00000000E+00  0.00000000E+00  0.00000000E+00
  0.00000000E+00  0.00000000E+00  0.00000000E+00
  0.00000000E+00  0.00000000E+00  0.00000000E+00
  0.00000000E+00  0.00000000E+00  0.00000000E+00
  0.00000000E+00  0.00000000E+00  0.00000000E+00
  0.00000000E+00  0.00000000E+00  0.00000000E+00
  0.00000000E+00  0.00000000E+00  0.00000000E+00
  0.00000000E+00  0.00000000E+00  0.00000000E+00
  0.00000000E+00  0.00000000E+00  0.00000000E+00
  0.00000000E+00  0.00000000E+00  0.00000000E+00
  0.00000000E+00  0.00000000E+00  0.00000000E+00
  0.00000000E+00  0.00000000E+00  0.00000000E+00
  0.00000000E+00  0.00000000E+00  0.00000000E+00
  0.00000000E+00  0.00000000E+00  0.00000000E+00
  0.00000000E+00  0.00000000E+00  0.00000000E+00
  0.00000000E+00  0.00000000E+00  0.00000000E+00
  0.00000000E+00  0.00000000E+00  0.00000000E+00
  0.00000000E+00  0.00000000E+00  0.00000000E+00
  0.00000000E+00  0.00000000E+00  0.00000000E+00
  0.00000000E+00  0.00000000E+00  0.00000000E+00
