SiGeH16                                 
   1.00000000000000     
    20.0000000000000000    0.0000000000000000    0.0000000000000000
     0.0000000000000000   20.0000000000000000    0.0000000000000000
     0.0000000000000000    0.0000000000000000   20.0000000000000000
   Si   Ge   H 
     5     5    16
Direct
  0.4737042767204187  0.5563369466320864  0.3836416291884106
  0.3695760899755669  0.5395042824546792  0.4352663327011754
  0.5568196779820624  0.4313583317206806  0.5130360399162157
  0.4521426987468047  0.4153450960463232  0.5638016250517452
  0.4394307054711035  0.6073497643197641  0.6066831056380408
  0.5407921983560371  0.4573300556645279  0.3966680129703946
  0.5300475708554586  0.6487693803555317  0.4359472685129404
  0.3856618511147829  0.5148919694204181  0.5519114744529290
  0.5463076775936315  0.6252535841351801  0.5553167071597684
  0.6135913644275135  0.5231476019331396  0.5660057526008941
  0.4164365810830688  0.3577873443195898  0.5317132854453348
  0.4605348810244081  0.3994157371343832  0.6365224243968939
  0.5985424983408407  0.3692317092285791  0.5190442505898289
  0.6830886081149785  0.5344414125840160  0.5327425592413988
  0.6260853366589316  0.5077161983948457  0.6413480964611225
  0.6099506719896866  0.4679084608532804  0.3624557472692302
  0.5065572788206083  0.3972851937838442  0.3606590546432074
  0.4645810575066704  0.5706621616130931  0.3105119097358155
  0.5837343626052274  0.6849751255049981  0.5889566734778171
  0.4479841877595874  0.5923725421467338  0.6795629444146130
  0.3971305933280220  0.6688390194541043  0.6004017348663808
  0.3159315349922664  0.5027362393880495  0.5849693875489521
  0.3335480461287830  0.4824181048328597  0.4027028220012738
  0.3267689900402786  0.6005897782958201  0.4282620633192664
  0.4887300650602597  0.7142834044276327  0.4274929118393587
  0.5992911953030031  0.6604505553558511  0.4012931865569959
 
  0.00000000E+00  0.00000000E+00  0.00000000E+00
  0.00000000E+00  0.00000000E+00  0.00000000E+00
  0.00000000E+00  0.00000000E+00  0.00000000E+00
  0.00000000E+00  0.00000000E+00  0.00000000E+00
  0.00000000E+00  0.00000000E+00  0.00000000E+00
  0.00000000E+00  0.00000000E+00  0.00000000E+00
  0.00000000E+00  0.00000000E+00  0.00000000E+00
  0.00000000E+00  0.00000000E+00  0.00000000E+00
  0.00000000E+00  0.00000000E+00  0.00000000E+00
  0.00000000E+00  0.00000000E+00  0.00000000E+00
  0.00000000E+00  0.00000000E+00  0.00000000E+00
  0.00000000E+00  0.00000000E+00  0.00000000E+00
  0.00000000E+00  0.00000000E+00  0.00000000E+00
  0.00000000E+00  0.00000000E+00  0.00000000E+00
  0.00000000E+00  0.00000000E+00  0.00000000E+00
  0.00000000E+00  0.00000000E+00  0.00000000E+00
  0.00000000E+00  0.00000000E+00  0.00000000E+00
  0.00000000E+00  0.00000000E+00  0.00000000E+00
  0.00000000E+00  0.00000000E+00  0.00000000E+00
  0.00000000E+00  0.00000000E+00  0.00000000E+00
  0.00000000E+00  0.00000000E+00  0.00000000E+00
  0.00000000E+00  0.00000000E+00  0.00000000E+00
  0.00000000E+00  0.00000000E+00  0.00000000E+00
  0.00000000E+00  0.00000000E+00  0.00000000E+00
  0.00000000E+00  0.00000000E+00  0.00000000E+00
  0.00000000E+00  0.00000000E+00  0.00000000E+00
