SiGeH16                                 
   1.00000000000000     
    20.0000000000000000    0.0000000000000000    0.0000000000000000
     0.0000000000000000   20.0000000000000000    0.0000000000000000
     0.0000000000000000    0.0000000000000000   20.0000000000000000
   Si   Ge   H 
     1     9    16
Direct
  0.4751532124909982  0.5567454401431385  0.3823140035348893
  0.3681532207571420  0.5394650507110604  0.4342776485338192
  0.5418407478858851  0.4573997744641782  0.3937760410512937
  0.5311066814985868  0.6489628621127055  0.4353618459333786
  0.3819083343782723  0.5143247808612323  0.5536517921353121
  0.5590340532957032  0.4306261882635583  0.5123493870886630
  0.5480878117222218  0.6259864415801398  0.5547578069850766
  0.6161457617991546  0.5245996857368324  0.5667840913934054
  0.4499501886478403  0.4129234645923258  0.5656735621291381
  0.4390041776687910  0.6083080822259384  0.6080919764409068
  0.4136569031112168  0.3525179611700209  0.5324216277364985
  0.4593933324909029  0.3957114934540931  0.6410806688509877
  0.6024465671805133  0.3659640852238557  0.5186956737194757
  0.6860877217283975  0.5355776035968418  0.5342389900125522
  0.6278277189932869  0.5088938078312500  0.6422051321634020
  0.6109331911695156  0.4672152222699501  0.3591692846296665
  0.5069734414400122  0.3973544241164478  0.3584684912053729
  0.4653726685386936  0.5720151802891861  0.3094260527330554
  0.5844780134804100  0.6864749225377326  0.5882733917347449
  0.4483041509617007  0.5937021051460524  0.6840633538845948
  0.3957169270411495  0.6728085607714279  0.6019663852006920
  0.3118451759767158  0.5032804534398084  0.5864467463156092
  0.3305636697918937  0.4807028037952952  0.3996086275701674
  0.3237180395721806  0.6029243839839077  0.4261466246775755
  0.4892332635069052  0.7141438405343027  0.4272566941189137
  0.6000350248719035  0.6617713811487226  0.4014111002208058
 
  0.00000000E+00  0.00000000E+00  0.00000000E+00
  0.00000000E+00  0.00000000E+00  0.00000000E+00
  0.00000000E+00  0.00000000E+00  0.00000000E+00
  0.00000000E+00  0.00000000E+00  0.00000000E+00
  0.00000000E+00  0.00000000E+00  0.00000000E+00
  0.00000000E+00  0.00000000E+00  0.00000000E+00
  0.00000000E+00  0.00000000E+00  0.00000000E+00
  0.00000000E+00  0.00000000E+00  0.00000000E+00
  0.00000000E+00  0.00000000E+00  0.00000000E+00
  0.00000000E+00  0.00000000E+00  0.00000000E+00
  0.00000000E+00  0.00000000E+00  0.00000000E+00
  0.00000000E+00  0.00000000E+00  0.00000000E+00
  0.00000000E+00  0.00000000E+00  0.00000000E+00
  0.00000000E+00  0.00000000E+00  0.00000000E+00
  0.00000000E+00  0.00000000E+00  0.00000000E+00
  0.00000000E+00  0.00000000E+00  0.00000000E+00
  0.00000000E+00  0.00000000E+00  0.00000000E+00
  0.00000000E+00  0.00000000E+00  0.00000000E+00
  0.00000000E+00  0.00000000E+00  0.00000000E+00
  0.00000000E+00  0.00000000E+00  0.00000000E+00
  0.00000000E+00  0.00000000E+00  0.00000000E+00
  0.00000000E+00  0.00000000E+00  0.00000000E+00
  0.00000000E+00  0.00000000E+00  0.00000000E+00
  0.00000000E+00  0.00000000E+00  0.00000000E+00
  0.00000000E+00  0.00000000E+00  0.00000000E+00
  0.00000000E+00  0.00000000E+00  0.00000000E+00
