SiGeH16                                 
   1.00000000000000     
    20.0000000000000000    0.0000000000000000    0.0000000000000000
     0.0000000000000000   20.0000000000000000    0.0000000000000000
     0.0000000000000000    0.0000000000000000   20.0000000000000000
   Si   Ge   H 
     5     5    16
Direct
  0.4747037103195169  0.5547026311240941  0.3846537421059821
  0.3693550758463502  0.5388889006185167  0.4346083159406504
  0.5409841256844032  0.4582164582001909  0.3950475158987885
  0.5485458056869632  0.6235323453445645  0.5545255033648573
  0.6135463416413884  0.5262472699210150  0.5654279990375883
  0.5311299744668077  0.6466670617047541  0.4379008566524334
  0.3821912609122506  0.5148488583108346  0.5517124713067787
  0.5588726410031200  0.4336831087337032  0.5113518851315959
  0.4501648112197572  0.4135952995516092  0.5647170864591047
  0.4412041522469963  0.6077289214970349  0.6063007659499604
  0.4147963228855645  0.3525680895521859  0.5315914624508551
  0.4597885123805128  0.3970042784753929  0.6402153615619497
  0.6031466264869252  0.3697007869491173  0.5182587429838676
  0.6808664031401861  0.5369162818765858  0.5342339962546276
  0.6242041174981239  0.5100419155240346  0.6377983573977275
  0.6069643724078944  0.4690460097859486  0.3612665641949846
  0.5076320436537998  0.3998288426164081  0.3619813483182455
  0.4653862621229052  0.5710234669699332  0.3119201581997260
  0.5836244749437256  0.6816719291146640  0.5866174179065382
  0.4493130488451413  0.5925296718684834  0.6822924424287038
  0.3987864908122276  0.6728210585384105  0.6002192055545308
  0.3123286281854121  0.5048298756464149  0.5852272184881571
  0.3331296452846075  0.4823819950670583  0.4012059649398694
  0.3278882480653067  0.6007153178852747  0.4262287726288108
  0.4889554359188963  0.7116806538181848  0.4299015410078439
  0.5994614683412109  0.6595289713055976  0.4017123038357985
 
  0.00000000E+00  0.00000000E+00  0.00000000E+00
  0.00000000E+00  0.00000000E+00  0.00000000E+00
  0.00000000E+00  0.00000000E+00  0.00000000E+00
  0.00000000E+00  0.00000000E+00  0.00000000E+00
  0.00000000E+00  0.00000000E+00  0.00000000E+00
  0.00000000E+00  0.00000000E+00  0.00000000E+00
  0.00000000E+00  0.00000000E+00  0.00000000E+00
  0.00000000E+00  0.00000000E+00  0.00000000E+00
  0.00000000E+00  0.00000000E+00  0.00000000E+00
  0.00000000E+00  0.00000000E+00  0.00000000E+00
  0.00000000E+00  0.00000000E+00  0.00000000E+00
  0.00000000E+00  0.00000000E+00  0.00000000E+00
  0.00000000E+00  0.00000000E+00  0.00000000E+00
  0.00000000E+00  0.00000000E+00  0.00000000E+00
  0.00000000E+00  0.00000000E+00  0.00000000E+00
  0.00000000E+00  0.00000000E+00  0.00000000E+00
  0.00000000E+00  0.00000000E+00  0.00000000E+00
  0.00000000E+00  0.00000000E+00  0.00000000E+00
  0.00000000E+00  0.00000000E+00  0.00000000E+00
  0.00000000E+00  0.00000000E+00  0.00000000E+00
  0.00000000E+00  0.00000000E+00  0.00000000E+00
  0.00000000E+00  0.00000000E+00  0.00000000E+00
  0.00000000E+00  0.00000000E+00  0.00000000E+00
  0.00000000E+00  0.00000000E+00  0.00000000E+00
  0.00000000E+00  0.00000000E+00  0.00000000E+00
  0.00000000E+00  0.00000000E+00  0.00000000E+00
