SiGeH16                                 
   1.00000000000000     
    20.0000000000000000    0.0000000000000000    0.0000000000000000
     0.0000000000000000   20.0000000000000000    0.0000000000000000
     0.0000000000000000    0.0000000000000000   20.0000000000000000
   Si   Ge   H 
     5     5    16
Direct
  0.4737042767204211  0.5563369466320875  0.3836416291884097
  0.3695760899755670  0.5395042824546823  0.4352663327011784
  0.5568196779820644  0.4313583317206820  0.5130360399162137
  0.4521426987468021  0.4153450960463224  0.5638016250517454
  0.4394307054711026  0.6073497643197672  0.6066831056380441
  0.5407921983560380  0.4573300556645249  0.3966680129703921
  0.5300475708554599  0.6487693803555339  0.4359472685129395
  0.3856618511147827  0.5148919694204158  0.5519114744529262
  0.5463076775936284  0.6252535841351826  0.5553167071597691
  0.6135913644275107  0.5231476019331374  0.5660057526008956
  0.4164365810830705  0.3577873443195902  0.5317132854453341
  0.4605348810244069  0.3994157371343835  0.6365224243968965
  0.5985424983408414  0.3692317092285775  0.5190442505898277
  0.6830886081149771  0.5344414125840156  0.5327425592413972
  0.6260853366589283  0.5077161983948424  0.6413480964611250
  0.6099506719896874  0.4679084608532789  0.3624557472692278
  0.5065572788206092  0.3972851937838469  0.3606590546432071
  0.4645810575066728  0.5706621616130938  0.3105119097358185
  0.5837343626052252  0.6849751255049973  0.5889566734778143
  0.4479841877595859  0.5923725421467367  0.6795629444146142
  0.3971305933280202  0.6688390194541036  0.6004017348663793
  0.3159315349922643  0.5027362393880460  0.5849693875489506
  0.3335480461287835  0.4824181048328600  0.4027028220012724
  0.3267689900402772  0.6005897782958168  0.4282620633192664
  0.4887300650602627  0.7142834044276293  0.4274929118393584
  0.5992911953030040  0.6604505553558508  0.4022931865569938
 
  0.00000000E+00  0.00000000E+00  0.00000000E+00
  0.00000000E+00  0.00000000E+00  0.00000000E+00
  0.00000000E+00  0.00000000E+00  0.00000000E+00
  0.00000000E+00  0.00000000E+00  0.00000000E+00
  0.00000000E+00  0.00000000E+00  0.00000000E+00
  0.00000000E+00  0.00000000E+00  0.00000000E+00
  0.00000000E+00  0.00000000E+00  0.00000000E+00
  0.00000000E+00  0.00000000E+00  0.00000000E+00
  0.00000000E+00  0.00000000E+00  0.00000000E+00
  0.00000000E+00  0.00000000E+00  0.00000000E+00
  0.00000000E+00  0.00000000E+00  0.00000000E+00
  0.00000000E+00  0.00000000E+00  0.00000000E+00
  0.00000000E+00  0.00000000E+00  0.00000000E+00
  0.00000000E+00  0.00000000E+00  0.00000000E+00
  0.00000000E+00  0.00000000E+00  0.00000000E+00
  0.00000000E+00  0.00000000E+00  0.00000000E+00
  0.00000000E+00  0.00000000E+00  0.00000000E+00
  0.00000000E+00  0.00000000E+00  0.00000000E+00
  0.00000000E+00  0.00000000E+00  0.00000000E+00
  0.00000000E+00  0.00000000E+00  0.00000000E+00
  0.00000000E+00  0.00000000E+00  0.00000000E+00
  0.00000000E+00  0.00000000E+00  0.00000000E+00
  0.00000000E+00  0.00000000E+00  0.00000000E+00
  0.00000000E+00  0.00000000E+00  0.00000000E+00
  0.00000000E+00  0.00000000E+00  0.00000000E+00
  0.00000000E+00  0.00000000E+00  0.00000000E+00
