SiGeH16                                 
   1.00000000000000     
    20.0000000000000000    0.0000000000000000    0.0000000000000000
     0.0000000000000000   20.0000000000000000    0.0000000000000000
     0.0000000000000000    0.0000000000000000   20.0000000000000000
   Si   Ge   H 
     4     6    16
Direct
  0.4737007828153074  0.5563211931503169  0.3838803673330151
  0.3691958296164151  0.5392721661166210  0.4348415655184949
  0.5566776963812604  0.4315492978537980  0.5130580865940261
  0.4520043761099479  0.4147472752579132  0.5637518697604742
  0.5408092866797294  0.4573962596604878  0.3967186096971392
  0.5304632972089875  0.6489448704248627  0.4355245410418564
  0.3843101018745200  0.5134232552235815  0.5513602634927242
  0.5481662707167336  0.6259400539291221  0.5547918980181858
  0.6141843543501178  0.5230502126148163  0.5658636085581851
  0.4390188683660831  0.6079106790074201  0.6074913902573884
  0.4171757091357787  0.3566186777932007  0.5317076110673267
  0.4604378967819066  0.3992491337203371  0.6365755455718271
  0.5983802968858033  0.3693691591788280  0.5190821237538493
  0.6840193937095601  0.5332521042995146  0.5328354085148853
  0.6263704760326192  0.5076806436534747  0.6412808953142534
  0.6099751322506963  0.4679173464499582  0.3624468030821241
  0.5065478524247786  0.3973534015647885  0.3607302347013300
  0.4645310213895787  0.5706399312961157  0.3107201991990522
  0.5855330196117081  0.6857113599000918  0.5885165660451528
  0.4477081408730605  0.5926159869902831  0.6833796517246660
  0.3950007453981407  0.6718844078685828  0.6013176999803546
  0.3146090507936415  0.5012877693317809  0.5844136348636674
  0.3334076601277469  0.4825678106502341  0.4013269664377447
  0.3265928537796912  0.6005497949852305  0.4281863892551423
  0.4889336704511165  0.7143663191308492  0.4273028065839461
  0.5992162162350634  0.6607808899477950  0.4008122636331855
 
  0.00000000E+00  0.00000000E+00  0.00000000E+00
  0.00000000E+00  0.00000000E+00  0.00000000E+00
  0.00000000E+00  0.00000000E+00  0.00000000E+00
  0.00000000E+00  0.00000000E+00  0.00000000E+00
  0.00000000E+00  0.00000000E+00  0.00000000E+00
  0.00000000E+00  0.00000000E+00  0.00000000E+00
  0.00000000E+00  0.00000000E+00  0.00000000E+00
  0.00000000E+00  0.00000000E+00  0.00000000E+00
  0.00000000E+00  0.00000000E+00  0.00000000E+00
  0.00000000E+00  0.00000000E+00  0.00000000E+00
  0.00000000E+00  0.00000000E+00  0.00000000E+00
  0.00000000E+00  0.00000000E+00  0.00000000E+00
  0.00000000E+00  0.00000000E+00  0.00000000E+00
  0.00000000E+00  0.00000000E+00  0.00000000E+00
  0.00000000E+00  0.00000000E+00  0.00000000E+00
  0.00000000E+00  0.00000000E+00  0.00000000E+00
  0.00000000E+00  0.00000000E+00  0.00000000E+00
  0.00000000E+00  0.00000000E+00  0.00000000E+00
  0.00000000E+00  0.00000000E+00  0.00000000E+00
  0.00000000E+00  0.00000000E+00  0.00000000E+00
  0.00000000E+00  0.00000000E+00  0.00000000E+00
  0.00000000E+00  0.00000000E+00  0.00000000E+00
  0.00000000E+00  0.00000000E+00  0.00000000E+00
  0.00000000E+00  0.00000000E+00  0.00000000E+00
  0.00000000E+00  0.00000000E+00  0.00000000E+00
  0.00000000E+00  0.00000000E+00  0.00000000E+00
