SiGeH16                                 
   1.00000000000000     
    20.0000000000000000    0.0000000000000000    0.0000000000000000
     0.0000000000000000   20.0000000000000000    0.0000000000000000
     0.0000000000000000    0.0000000000000000   20.0000000000000000
   Si   Ge   H 
     4     6    16
Direct
  0.4737992336514836  0.5561945717620134  0.3845106583417675
  0.3688085380451298  0.5394363808793301  0.4346192194639542
  0.5584265938024444  0.4317557084754640  0.5123667498727613
  0.5476027999121840  0.6248905921941343  0.5542997040615774
  0.5412173007010708  0.4572201578114061  0.3962123176168078
  0.5305224979368575  0.6480498362862974  0.4376438582674993
  0.3831562899105947  0.5148992108411079  0.5513330565006527
  0.6131918927004207  0.5247675295584955  0.5652400012029375
  0.4515680029810909  0.4138044957428164  0.5640582344402958
  0.4406694133729658  0.6083499549228222  0.6063023339005511
  0.4151567809003680  0.3532310476306577  0.5312377448374548
  0.4602029894637738  0.3975728855283194  0.6397448737421954
  0.6009462663396334  0.3702680870896913  0.5189082948947217
  0.6832372804694415  0.5357022618123537  0.5329213937080013
  0.6251394038143516  0.5090769997552940  0.6405949492835816
  0.6099307412510981  0.4682156493261118  0.3611429886046267
  0.5067384360830900  0.3971500496339218  0.3604842113964537
  0.4652020357064686  0.5715527262670932  0.3115354910074615
  0.5834439379769663  0.6823355271233780  0.5866550187137634
  0.4492732728188571  0.5926540349841360  0.6821064361542568
  0.3972636474338103  0.6728154970136515  0.6006278871981507
  0.3137215361438805  0.5036449754880721  0.5852293899011087
  0.3330801482251431  0.4826053015691514  0.4012770291506911
  0.3264556686992748  0.6007974730711183  0.4269387290064230
  0.4890268886468760  0.7134700209726503  0.4291518211075456
  0.5991884030127110  0.6599390242605168  0.4017746076247639
 
  0.00000000E+00  0.00000000E+00  0.00000000E+00
  0.00000000E+00  0.00000000E+00  0.00000000E+00
  0.00000000E+00  0.00000000E+00  0.00000000E+00
  0.00000000E+00  0.00000000E+00  0.00000000E+00
  0.00000000E+00  0.00000000E+00  0.00000000E+00
  0.00000000E+00  0.00000000E+00  0.00000000E+00
  0.00000000E+00  0.00000000E+00  0.00000000E+00
  0.00000000E+00  0.00000000E+00  0.00000000E+00
  0.00000000E+00  0.00000000E+00  0.00000000E+00
  0.00000000E+00  0.00000000E+00  0.00000000E+00
  0.00000000E+00  0.00000000E+00  0.00000000E+00
  0.00000000E+00  0.00000000E+00  0.00000000E+00
  0.00000000E+00  0.00000000E+00  0.00000000E+00
  0.00000000E+00  0.00000000E+00  0.00000000E+00
  0.00000000E+00  0.00000000E+00  0.00000000E+00
  0.00000000E+00  0.00000000E+00  0.00000000E+00
  0.00000000E+00  0.00000000E+00  0.00000000E+00
  0.00000000E+00  0.00000000E+00  0.00000000E+00
  0.00000000E+00  0.00000000E+00  0.00000000E+00
  0.00000000E+00  0.00000000E+00  0.00000000E+00
  0.00000000E+00  0.00000000E+00  0.00000000E+00
  0.00000000E+00  0.00000000E+00  0.00000000E+00
  0.00000000E+00  0.00000000E+00  0.00000000E+00
  0.00000000E+00  0.00000000E+00  0.00000000E+00
  0.00000000E+00  0.00000000E+00  0.00000000E+00
  0.00000000E+00  0.00000000E+00  0.00000000E+00
