SiGeH16                                 
   1.00000000000000     
    20.0000000000000000    0.0000000000000000    0.0000000000000000
     0.0000000000000000   20.0000000000000000    0.0000000000000000
     0.0000000000000000    0.0000000000000000   20.0000000000000000
   Si   Ge   H 
     5     5    16
Direct
  0.4738499002658388  0.5560878232596340  0.3850193956264595
  0.3695998518372245  0.5390319877428972  0.4366900924678740
  0.3840189592620870  0.5150434005004686  0.5509050408513358
  0.5580956230859798  0.4320722032061469  0.5122895397437481
  0.5473078862822273  0.6245999639713870  0.5540900474011201
  0.5414272643118303  0.4572710769210842  0.3960940567518210
  0.5307366642049186  0.6480757488017745  0.4375191206334225
  0.6133921906975112  0.5247923308547905  0.5651696148958373
  0.4507467356173762  0.4158360090613102  0.5635461501928684
  0.4400580149811456  0.6066408205374595  0.6049735630053371
  0.4145522612641360  0.3551097361586152  0.5308195364700509
  0.4594773578408669  0.3993817656689350  0.6391751089108706
  0.5997797149927088  0.3700825692999019  0.5195193724100874
  0.6834425827402761  0.5357313789448084  0.5328333309048789
  0.6250965741130879  0.5090727164929892  0.6405901979018052
  0.6101081733684723  0.4682281028506211  0.3610268445415300
  0.5067532096672916  0.3972356505188503  0.3605664110178315
  0.4639829084983954  0.5713458529788429  0.3121765366367295
  0.5822822425046097  0.6821222747594679  0.5872625496803850
  0.4487356510920673  0.5911777832427308  0.6808176023061059
  0.3968500310894396  0.6712284680618736  0.5994562362288524
  0.3171619224345306  0.5042589617906202  0.5833080980313947
  0.3338592610567057  0.4822356237386776  0.4032887237538057
  0.3272338196156261  0.6003840283309240  0.4289233836741190
  0.4890552996030846  0.7133613074425675  0.4291902702917438
  0.5993658995725565  0.6599924148626261  0.4026661756699829
 
  0.00000000E+00  0.00000000E+00  0.00000000E+00
  0.00000000E+00  0.00000000E+00  0.00000000E+00
  0.00000000E+00  0.00000000E+00  0.00000000E+00
  0.00000000E+00  0.00000000E+00  0.00000000E+00
  0.00000000E+00  0.00000000E+00  0.00000000E+00
  0.00000000E+00  0.00000000E+00  0.00000000E+00
  0.00000000E+00  0.00000000E+00  0.00000000E+00
  0.00000000E+00  0.00000000E+00  0.00000000E+00
  0.00000000E+00  0.00000000E+00  0.00000000E+00
  0.00000000E+00  0.00000000E+00  0.00000000E+00
  0.00000000E+00  0.00000000E+00  0.00000000E+00
  0.00000000E+00  0.00000000E+00  0.00000000E+00
  0.00000000E+00  0.00000000E+00  0.00000000E+00
  0.00000000E+00  0.00000000E+00  0.00000000E+00
  0.00000000E+00  0.00000000E+00  0.00000000E+00
  0.00000000E+00  0.00000000E+00  0.00000000E+00
  0.00000000E+00  0.00000000E+00  0.00000000E+00
  0.00000000E+00  0.00000000E+00  0.00000000E+00
  0.00000000E+00  0.00000000E+00  0.00000000E+00
  0.00000000E+00  0.00000000E+00  0.00000000E+00
  0.00000000E+00  0.00000000E+00  0.00000000E+00
  0.00000000E+00  0.00000000E+00  0.00000000E+00
  0.00000000E+00  0.00000000E+00  0.00000000E+00
  0.00000000E+00  0.00000000E+00  0.00000000E+00
  0.00000000E+00  0.00000000E+00  0.00000000E+00
  0.00000000E+00  0.00000000E+00  0.00000000E+00
