SiGeH16                                 
   1.00000000000000     
    20.0000000000000000    0.0000000000000000    0.0000000000000000
     0.0000000000000000   20.0000000000000000    0.0000000000000000
     0.0000000000000000    0.0000000000000000   20.0000000000000000
   Si   Ge   H 
     5     5    16
Direct
  0.4736642212893366  0.5563327470749052  0.3836604627402023
  0.3692195626532526  0.5398988315191076  0.4350517468951347
  0.5592108010510912  0.4329813060024738  0.5130787354931273
  0.6133129245259301  0.5233023160713401  0.5653711707797026
  0.4395644476194355  0.6074796929925117  0.6067122329058064
  0.5415365035888821  0.4578277892975374  0.3966746569554457
  0.5302379354200848  0.6483410542951858  0.4361288177356062
  0.3838225261065440  0.5162597134792087  0.5521071159861037
  0.5468482210585104  0.6230640797790921  0.5551527957187946
  0.4521986629526156  0.4150053081291133  0.5645000795774654
  0.4159232757984537  0.3548471220390511  0.5308705085966691
  0.4603383213204297  0.3977749267380028  0.6400377392490719
  0.6010783517308821  0.3709027667358871  0.5190392698319750
  0.6802341134355483  0.5349434995435847  0.5337871294468619
  0.6248594623304613  0.5080774016794158  0.6378524432318748
  0.6100680850596102  0.4683876199665835  0.3610565157114496
  0.5071789022606448  0.3971149184033037  0.3618895515798075
  0.4644252738655116  0.5705256950914557  0.3104821747637501
  0.5842476704638344  0.6828641993970350  0.5887948288572764
  0.4477756288701748  0.5924462081042815  0.6796120114143767
  0.3989345217587004  0.6700820483664968  0.6005980298572661
  0.3140730634951540  0.5039385746187716  0.5851173660322616
  0.3333547806553697  0.4826634156731373  0.4026576249915403
  0.3264755014789327  0.6009254683479269  0.4268430276539901
  0.4890745971724264  0.7140545378600115  0.4286302803043032
  0.5993126440381762  0.6603587587945838  0.4022106836901334
 
  0.00000000E+00  0.00000000E+00  0.00000000E+00
  0.00000000E+00  0.00000000E+00  0.00000000E+00
  0.00000000E+00  0.00000000E+00  0.00000000E+00
  0.00000000E+00  0.00000000E+00  0.00000000E+00
  0.00000000E+00  0.00000000E+00  0.00000000E+00
  0.00000000E+00  0.00000000E+00  0.00000000E+00
  0.00000000E+00  0.00000000E+00  0.00000000E+00
  0.00000000E+00  0.00000000E+00  0.00000000E+00
  0.00000000E+00  0.00000000E+00  0.00000000E+00
  0.00000000E+00  0.00000000E+00  0.00000000E+00
  0.00000000E+00  0.00000000E+00  0.00000000E+00
  0.00000000E+00  0.00000000E+00  0.00000000E+00
  0.00000000E+00  0.00000000E+00  0.00000000E+00
  0.00000000E+00  0.00000000E+00  0.00000000E+00
  0.00000000E+00  0.00000000E+00  0.00000000E+00
  0.00000000E+00  0.00000000E+00  0.00000000E+00
  0.00000000E+00  0.00000000E+00  0.00000000E+00
  0.00000000E+00  0.00000000E+00  0.00000000E+00
  0.00000000E+00  0.00000000E+00  0.00000000E+00
  0.00000000E+00  0.00000000E+00  0.00000000E+00
  0.00000000E+00  0.00000000E+00  0.00000000E+00
  0.00000000E+00  0.00000000E+00  0.00000000E+00
  0.00000000E+00  0.00000000E+00  0.00000000E+00
  0.00000000E+00  0.00000000E+00  0.00000000E+00
  0.00000000E+00  0.00000000E+00  0.00000000E+00
  0.00000000E+00  0.00000000E+00  0.00000000E+00
