SiGeH16                                 
   1.00000000000000     
    20.0000000000000000    0.0000000000000000    0.0000000000000000
     0.0000000000000000   20.0000000000000000    0.0000000000000000
     0.0000000000000000    0.0000000000000000   20.0000000000000000
   Si   Ge   H 
     4     6    16
Direct
  0.3675596345211423  0.5391534583306039  0.4356140162184668
  0.5424182512033522  0.4565134369906327  0.3948400857794055
  0.6145071944074073  0.5247334952290144  0.5657644346984043
  0.4396483091402881  0.6073621335260649  0.6065378377041311
  0.4744661212360394  0.5549544931992709  0.3829788847632881
  0.5315969186009262  0.6493149131111658  0.4367387891749976
  0.3828004635080423  0.5162085296500479  0.5526160043179339
  0.5595464992020337  0.4326816419414830  0.5114040679223745
  0.5473317596731072  0.6239070189248124  0.5557523897953256
  0.4504813035252848  0.4145615139252345  0.5646298818288771
  0.4141749984472355  0.3541622387536703  0.5313371147007389
  0.4600343336959277  0.3975560279947143  0.6400913475680454
  0.6026647524566501  0.3679469465550221  0.5190640613098364
  0.6815462581809133  0.5363710198713998  0.5344132574807500
  0.6252647083096412  0.5085561604238333  0.6381132124238664
  0.6084636044556430  0.4672355421712387  0.3611413773736813
  0.5087622537101345  0.3982873696889774  0.3618494254190538
  0.4644346352184203  0.5711234980350155  0.3071732412983144
  0.5837123556037077  0.6839963292888543  0.5900126571910153
  0.4480124169110082  0.5922998350163430  0.6794501239455248
  0.3989157344186207  0.6699193069960850  0.6003253114605919
  0.3133325292266400  0.5046763949528776  0.5865188763344438
  0.3314894937072536  0.4820572112674990  0.4031849205791497
  0.3258465029774812  0.6007831654288067  0.4270485925582892
  0.4893557878431058  0.7143084210324122  0.4286227388017917
  0.6006031798199872  0.6617298976949240  0.4026943493517008
 
  0.00000000E+00  0.00000000E+00  0.00000000E+00
  0.00000000E+00  0.00000000E+00  0.00000000E+00
  0.00000000E+00  0.00000000E+00  0.00000000E+00
  0.00000000E+00  0.00000000E+00  0.00000000E+00
  0.00000000E+00  0.00000000E+00  0.00000000E+00
  0.00000000E+00  0.00000000E+00  0.00000000E+00
  0.00000000E+00  0.00000000E+00  0.00000000E+00
  0.00000000E+00  0.00000000E+00  0.00000000E+00
  0.00000000E+00  0.00000000E+00  0.00000000E+00
  0.00000000E+00  0.00000000E+00  0.00000000E+00
  0.00000000E+00  0.00000000E+00  0.00000000E+00
  0.00000000E+00  0.00000000E+00  0.00000000E+00
  0.00000000E+00  0.00000000E+00  0.00000000E+00
  0.00000000E+00  0.00000000E+00  0.00000000E+00
  0.00000000E+00  0.00000000E+00  0.00000000E+00
  0.00000000E+00  0.00000000E+00  0.00000000E+00
  0.00000000E+00  0.00000000E+00  0.00000000E+00
  0.00000000E+00  0.00000000E+00  0.00000000E+00
  0.00000000E+00  0.00000000E+00  0.00000000E+00
  0.00000000E+00  0.00000000E+00  0.00000000E+00
  0.00000000E+00  0.00000000E+00  0.00000000E+00
  0.00000000E+00  0.00000000E+00  0.00000000E+00
  0.00000000E+00  0.00000000E+00  0.00000000E+00
  0.00000000E+00  0.00000000E+00  0.00000000E+00
  0.00000000E+00  0.00000000E+00  0.00000000E+00
  0.00000000E+00  0.00000000E+00  0.00000000E+00
