SiGeH16                                 
   1.00000000000000     
    20.0000000000000000    0.0000000000000000    0.0000000000000000
     0.0000000000000000   20.0000000000000000    0.0000000000000000
     0.0000000000000000    0.0000000000000000   20.0000000000000000
   Si   Ge   H 
     4     6    16
Direct
  0.3675596345211432  0.5391534583306026  0.4356140162184658
  0.5424182512033511  0.4565134369906332  0.3948400857794070
  0.6145071944074090  0.5247334952290146  0.5657644346984014
  0.4396483091402885  0.6073621335260668  0.6065378377041313
  0.4744661212360413  0.5549544931992685  0.3829788847632898
  0.5315969186009255  0.6493149131111693  0.4367387891749956
  0.3828004635080404  0.5162085296500507  0.5526160043179331
  0.5595464992020354  0.4326816419414854  0.5114040679223777
  0.5473317596731064  0.6239070189248110  0.5557523897953232
  0.4504813035252866  0.4145615139252357  0.5646298818288784
  0.4141749984472369  0.3541622387536734  0.5313371147007402
  0.4600343336959298  0.3975560279947175  0.6400913475680454
  0.6026647524566471  0.3679469465550227  0.5190640613098338
  0.6815462581809157  0.5363710198714031  0.5344132574807503
  0.6252647083096434  0.5085561604238364  0.6381132124238675
  0.6084636044556433  0.4672355421712382  0.3611413773736842
  0.5087622537101311  0.3982873696889797  0.3618494254190523
  0.4644346352184172  0.5711234980350142  0.3071732412983152
  0.5837123556037085  0.6839963292888527  0.5900126571910178
  0.4480124169110056  0.5922998350163411  0.6794501239455215
  0.3989157344186225  0.6699193069960856  0.6003253114605940
  0.3133325292266420  0.5046763949528810  0.5865188763344449
  0.3314894937072523  0.4820572112675023  0.4031849205791502
  0.3258465029774840  0.6007831654288083  0.4270485925582861
  0.4893557878431025  0.7143084210324133  0.4286227388017920
  0.6006031798199842  0.6617298976949257  0.4016943493516982
 
  0.00000000E+00  0.00000000E+00  0.00000000E+00
  0.00000000E+00  0.00000000E+00  0.00000000E+00
  0.00000000E+00  0.00000000E+00  0.00000000E+00
  0.00000000E+00  0.00000000E+00  0.00000000E+00
  0.00000000E+00  0.00000000E+00  0.00000000E+00
  0.00000000E+00  0.00000000E+00  0.00000000E+00
  0.00000000E+00  0.00000000E+00  0.00000000E+00
  0.00000000E+00  0.00000000E+00  0.00000000E+00
  0.00000000E+00  0.00000000E+00  0.00000000E+00
  0.00000000E+00  0.00000000E+00  0.00000000E+00
  0.00000000E+00  0.00000000E+00  0.00000000E+00
  0.00000000E+00  0.00000000E+00  0.00000000E+00
  0.00000000E+00  0.00000000E+00  0.00000000E+00
  0.00000000E+00  0.00000000E+00  0.00000000E+00
  0.00000000E+00  0.00000000E+00  0.00000000E+00
  0.00000000E+00  0.00000000E+00  0.00000000E+00
  0.00000000E+00  0.00000000E+00  0.00000000E+00
  0.00000000E+00  0.00000000E+00  0.00000000E+00
  0.00000000E+00  0.00000000E+00  0.00000000E+00
  0.00000000E+00  0.00000000E+00  0.00000000E+00
  0.00000000E+00  0.00000000E+00  0.00000000E+00
  0.00000000E+00  0.00000000E+00  0.00000000E+00
  0.00000000E+00  0.00000000E+00  0.00000000E+00
  0.00000000E+00  0.00000000E+00  0.00000000E+00
  0.00000000E+00  0.00000000E+00  0.00000000E+00
  0.00000000E+00  0.00000000E+00  0.00000000E+00
