SiGeH16                                 
   1.00000000000000     
    20.0000000000000000    0.0000000000000000    0.0000000000000000
     0.0000000000000000   20.0000000000000000    0.0000000000000000
     0.0000000000000000    0.0000000000000000   20.0000000000000000
   Si   Ge   H 
     5     5    16
Direct
  0.4756691778958384  0.5559061700706565  0.3863280150245174
  0.3706755455120359  0.5390106000189476  0.4370878467469197
  0.5412776958857961  0.4585222400790769  0.3949891039865037
  0.5306984943866127  0.6473834955508693  0.4359900771962089
  0.3827895708951417  0.5148473449910398  0.5514941248033907
  0.5584798939499152  0.4314368433685445  0.5107185162151993
  0.5475832455436560  0.6258597128381780  0.5529267770017370
  0.6160308298883024  0.5248190568436542  0.5657256748950559
  0.4490895813162226  0.4152989701123957  0.5641481438422744
  0.4383669367046181  0.6066990687300802  0.6057070000292697
  0.4128964605408925  0.3544213223903299  0.5316181120932058
  0.4590062891433035  0.3987731239252525  0.6395907890696009
  0.6009517767108292  0.3662337920861347  0.5176930807681188
  0.6862888059980889  0.5356774162368012  0.5338255163433985
  0.6265698020972650  0.5090224126852405  0.6412360798443473
  0.6073782290016254  0.4689467653291501  0.3612378747227396
  0.5067585105239232  0.4014833708225254  0.3606955942770185
  0.4646180621005271  0.5710838898161086  0.3135605378015285
  0.5829877135420531  0.6864792723495015  0.5872136475785510
  0.4482140982903573  0.5915052176334541  0.6814385651928134
  0.3951461809956101  0.6713391245909364  0.6004323995671399
  0.3153827314797013  0.5042739777083085  0.5828012715631488
  0.3352577494057201  0.4824416771455446  0.4028890826162197
  0.3286261071460572  0.6005132713991230  0.4285138172236529
  0.4894910085439932  0.7094458136675073  0.4275603020467358
  0.5967355025019074  0.6589760496106365  0.4014950495507085
 
  0.00000000E+00  0.00000000E+00  0.00000000E+00
  0.00000000E+00  0.00000000E+00  0.00000000E+00
  0.00000000E+00  0.00000000E+00  0.00000000E+00
  0.00000000E+00  0.00000000E+00  0.00000000E+00
  0.00000000E+00  0.00000000E+00  0.00000000E+00
  0.00000000E+00  0.00000000E+00  0.00000000E+00
  0.00000000E+00  0.00000000E+00  0.00000000E+00
  0.00000000E+00  0.00000000E+00  0.00000000E+00
  0.00000000E+00  0.00000000E+00  0.00000000E+00
  0.00000000E+00  0.00000000E+00  0.00000000E+00
  0.00000000E+00  0.00000000E+00  0.00000000E+00
  0.00000000E+00  0.00000000E+00  0.00000000E+00
  0.00000000E+00  0.00000000E+00  0.00000000E+00
  0.00000000E+00  0.00000000E+00  0.00000000E+00
  0.00000000E+00  0.00000000E+00  0.00000000E+00
  0.00000000E+00  0.00000000E+00  0.00000000E+00
  0.00000000E+00  0.00000000E+00  0.00000000E+00
  0.00000000E+00  0.00000000E+00  0.00000000E+00
  0.00000000E+00  0.00000000E+00  0.00000000E+00
  0.00000000E+00  0.00000000E+00  0.00000000E+00
  0.00000000E+00  0.00000000E+00  0.00000000E+00
  0.00000000E+00  0.00000000E+00  0.00000000E+00
  0.00000000E+00  0.00000000E+00  0.00000000E+00
  0.00000000E+00  0.00000000E+00  0.00000000E+00
  0.00000000E+00  0.00000000E+00  0.00000000E+00
  0.00000000E+00  0.00000000E+00  0.00000000E+00
