SiGeH16                                 
   1.00000000000000     
    20.0000000000000000    0.0000000000000000    0.0000000000000000
     0.0000000000000000   20.0000000000000000    0.0000000000000000
     0.0000000000000000    0.0000000000000000   20.0000000000000000
   Si   Ge   H 
     4     6    16
Direct
  0.4737007828153068  0.5563211931503176  0.3838803673330133
  0.3691958296164159  0.5392721661166178  0.4348415655184965
  0.5566776963812572  0.4315492978537989  0.5130580865940289
  0.4520043761099473  0.4147472752579162  0.5637518697604733
  0.5408092866797318  0.4573962596604844  0.3967186096971389
  0.5304632972089891  0.6489448704248630  0.4355245410418576
  0.3843101018745188  0.5134232552235787  0.5513602634927253
  0.5481662707167345  0.6259400539291207  0.5547918980181876
  0.6141843543501153  0.5230502126148195  0.5658636085581819
  0.4390188683660838  0.6079106790074178  0.6074913902573869
  0.4171757091357762  0.3566186777932003  0.5317076110673256
  0.4604378967819045  0.3992491337203390  0.6365755455718300
  0.5983802968858001  0.3693691591788308  0.5190821237538472
  0.6840193937095620  0.5332521042995140  0.5328354085148845
  0.6263704760326192  0.5076806436534724  0.6412808953142530
  0.6099751322506961  0.4679173464499584  0.3624468030821220
  0.5065478524247808  0.3973534015647857  0.3607302347013288
  0.4645310213895755  0.5706399312961139  0.3107201991990536
  0.5855330196117094  0.6857113599000897  0.5885165660451506
  0.4477081408730612  0.5926159869902818  0.6833796517246640
  0.3950007453981428  0.6718844078685819  0.6013176999803562
  0.3146090507936421  0.5012877693317819  0.5844136348636653
  0.3334076601277474  0.4825678106502309  0.4013269664377432
  0.3265928537796938  0.6005497949852270  0.4281863892551456
  0.4889336704511180  0.7143663191308463  0.4273028065839455
  0.5992162162350638  0.6607808899477945  0.3998122636331848
 
  0.00000000E+00  0.00000000E+00  0.00000000E+00
  0.00000000E+00  0.00000000E+00  0.00000000E+00
  0.00000000E+00  0.00000000E+00  0.00000000E+00
  0.00000000E+00  0.00000000E+00  0.00000000E+00
  0.00000000E+00  0.00000000E+00  0.00000000E+00
  0.00000000E+00  0.00000000E+00  0.00000000E+00
  0.00000000E+00  0.00000000E+00  0.00000000E+00
  0.00000000E+00  0.00000000E+00  0.00000000E+00
  0.00000000E+00  0.00000000E+00  0.00000000E+00
  0.00000000E+00  0.00000000E+00  0.00000000E+00
  0.00000000E+00  0.00000000E+00  0.00000000E+00
  0.00000000E+00  0.00000000E+00  0.00000000E+00
  0.00000000E+00  0.00000000E+00  0.00000000E+00
  0.00000000E+00  0.00000000E+00  0.00000000E+00
  0.00000000E+00  0.00000000E+00  0.00000000E+00
  0.00000000E+00  0.00000000E+00  0.00000000E+00
  0.00000000E+00  0.00000000E+00  0.00000000E+00
  0.00000000E+00  0.00000000E+00  0.00000000E+00
  0.00000000E+00  0.00000000E+00  0.00000000E+00
  0.00000000E+00  0.00000000E+00  0.00000000E+00
  0.00000000E+00  0.00000000E+00  0.00000000E+00
  0.00000000E+00  0.00000000E+00  0.00000000E+00
  0.00000000E+00  0.00000000E+00  0.00000000E+00
  0.00000000E+00  0.00000000E+00  0.00000000E+00
  0.00000000E+00  0.00000000E+00  0.00000000E+00
  0.00000000E+00  0.00000000E+00  0.00000000E+00
