SiGeH16                                 
   1.00000000000000     
    20.0000000000000000    0.0000000000000000    0.0000000000000000
     0.0000000000000000   20.0000000000000000    0.0000000000000000
     0.0000000000000000    0.0000000000000000   20.0000000000000000
   Si   Ge   H 
     5     5    16
Direct
  0.4747610690713633  0.5547525742394938  0.3846647536500561
  0.3706756568408578  0.5381668884824984  0.4370570769624643
  0.5407346574780397  0.4579970898153401  0.3950439981007443
  0.3845235999765195  0.5135134190726912  0.5513117012678674
  0.4493726752599752  0.4162434429234675  0.5637600632152828
  0.5310145020894637  0.6482515285574383  0.4355266929515795
  0.5564004857572395  0.4319913151010664  0.5113556251390746
  0.5482187491171606  0.6262298157198990  0.5549839806243163
  0.6156876818729644  0.5244537085418487  0.5663368751195729
  0.4385886737824410  0.6060144888735909  0.6062077561294232
  0.4144630678320564  0.3578980651328324  0.5321578047264633
  0.4589458773290426  0.4006614388898416  0.6364100265194442
  0.5989119763794032  0.3668318075860169  0.5182583641343822
  0.6856305151477472  0.5345466540982071  0.5335579655023804
  0.6271572269988892  0.5078351664631159  0.6415738587969739
  0.6073312281622734  0.4684949291500216  0.3623812509622418
  0.5072295278414652  0.4002870127639094  0.3608606551041136
  0.4636361219394741  0.5698598316375576  0.3119509781496099
  0.5836329680022230  0.6869109075910190  0.5891853155847286
  0.4471807892977596  0.5910567695922627  0.6821667292501286
  0.3946373237941651  0.6700429978593248  0.6001035312160891
  0.3170852745808076  0.5028791538667152  0.5825871088001432
  0.3342095991853881  0.4819066956210772  0.4033938602246975
  0.3288112326736019  0.5999237193652701  0.4296707891221068
  0.4885492345893994  0.7129596716241370  0.4266865355382728
  0.5995802850002727  0.6606909074313609  0.4007237032078395
 
  0.00000000E+00  0.00000000E+00  0.00000000E+00
  0.00000000E+00  0.00000000E+00  0.00000000E+00
  0.00000000E+00  0.00000000E+00  0.00000000E+00
  0.00000000E+00  0.00000000E+00  0.00000000E+00
  0.00000000E+00  0.00000000E+00  0.00000000E+00
  0.00000000E+00  0.00000000E+00  0.00000000E+00
  0.00000000E+00  0.00000000E+00  0.00000000E+00
  0.00000000E+00  0.00000000E+00  0.00000000E+00
  0.00000000E+00  0.00000000E+00  0.00000000E+00
  0.00000000E+00  0.00000000E+00  0.00000000E+00
  0.00000000E+00  0.00000000E+00  0.00000000E+00
  0.00000000E+00  0.00000000E+00  0.00000000E+00
  0.00000000E+00  0.00000000E+00  0.00000000E+00
  0.00000000E+00  0.00000000E+00  0.00000000E+00
  0.00000000E+00  0.00000000E+00  0.00000000E+00
  0.00000000E+00  0.00000000E+00  0.00000000E+00
  0.00000000E+00  0.00000000E+00  0.00000000E+00
  0.00000000E+00  0.00000000E+00  0.00000000E+00
  0.00000000E+00  0.00000000E+00  0.00000000E+00
  0.00000000E+00  0.00000000E+00  0.00000000E+00
  0.00000000E+00  0.00000000E+00  0.00000000E+00
  0.00000000E+00  0.00000000E+00  0.00000000E+00
  0.00000000E+00  0.00000000E+00  0.00000000E+00
  0.00000000E+00  0.00000000E+00  0.00000000E+00
  0.00000000E+00  0.00000000E+00  0.00000000E+00
  0.00000000E+00  0.00000000E+00  0.00000000E+00
