SiGeH16                                 
   1.00000000000000     
    20.0000000000000000    0.0000000000000000    0.0000000000000000
     0.0000000000000000   20.0000000000000000    0.0000000000000000
     0.0000000000000000    0.0000000000000000   20.0000000000000000
   Si   Ge   H 
     5     5    16
Direct
  0.4747700753610431  0.5547990976864625  0.3846271133551014
  0.3697386722079017  0.5384710895931377  0.4348857108479933
  0.5404179104578830  0.4578161713976812  0.3950916954914803
  0.5479005715326650  0.6256582976435467  0.5546280604951122
  0.4501377547814513  0.4140631597814846  0.5641537822403819
  0.5308598554658843  0.6472849891814150  0.4377015925905852
  0.3840177755890011  0.5134745565636649  0.5515635202399736
  0.5564621215709309  0.4319837504805264  0.5113609892692210
  0.6138611495012398  0.5259950506683708  0.5659078894550404
  0.4410106879367319  0.6076689017544439  0.6062148415558397
  0.4152339887083940  0.3557884824359050  0.5325423609462803
  0.4598326394885390  0.3987421442441743  0.6368215905117083
  0.6008331454581608  0.3680509252722004  0.5183475332722836
  0.6838299658590756  0.5359226658636373  0.5331049732675410
  0.6255841570725735  0.5092333967700711  0.6410721067409142
  0.6070960303086324  0.4684689859698565  0.3626215091017500
  0.5072018264463125  0.4000516901474711  0.3607901074423054
  0.4655273069061963  0.5711339947981386  0.3118957443500108
  0.5828442361958466  0.6838008774173900  0.5867388390072605
  0.4494102138612490  0.5924719476582609  0.6821533366365813
  0.3968343609576621  0.6715486120589489  0.6000397646593072
  0.3141934637690511  0.5035002644760453  0.5851756610419940
  0.3332857284360529  0.4822341890539832  0.4013420420963172
  0.3280515069520220  0.6003133423171079  0.4276933821151303
  0.4886353898440063  0.7121403021592059  0.4286332879027555
  0.5993994653314942  0.6597831146068671  0.4018095653671216
 
  0.00000000E+00  0.00000000E+00  0.00000000E+00
  0.00000000E+00  0.00000000E+00  0.00000000E+00
  0.00000000E+00  0.00000000E+00  0.00000000E+00
  0.00000000E+00  0.00000000E+00  0.00000000E+00
  0.00000000E+00  0.00000000E+00  0.00000000E+00
  0.00000000E+00  0.00000000E+00  0.00000000E+00
  0.00000000E+00  0.00000000E+00  0.00000000E+00
  0.00000000E+00  0.00000000E+00  0.00000000E+00
  0.00000000E+00  0.00000000E+00  0.00000000E+00
  0.00000000E+00  0.00000000E+00  0.00000000E+00
  0.00000000E+00  0.00000000E+00  0.00000000E+00
  0.00000000E+00  0.00000000E+00  0.00000000E+00
  0.00000000E+00  0.00000000E+00  0.00000000E+00
  0.00000000E+00  0.00000000E+00  0.00000000E+00
  0.00000000E+00  0.00000000E+00  0.00000000E+00
  0.00000000E+00  0.00000000E+00  0.00000000E+00
  0.00000000E+00  0.00000000E+00  0.00000000E+00
  0.00000000E+00  0.00000000E+00  0.00000000E+00
  0.00000000E+00  0.00000000E+00  0.00000000E+00
  0.00000000E+00  0.00000000E+00  0.00000000E+00
  0.00000000E+00  0.00000000E+00  0.00000000E+00
  0.00000000E+00  0.00000000E+00  0.00000000E+00
  0.00000000E+00  0.00000000E+00  0.00000000E+00
  0.00000000E+00  0.00000000E+00  0.00000000E+00
  0.00000000E+00  0.00000000E+00  0.00000000E+00
  0.00000000E+00  0.00000000E+00  0.00000000E+00
