SiGeH16                                 
   1.00000000000000     
    20.0000000000000000    0.0000000000000000    0.0000000000000000
     0.0000000000000000   20.0000000000000000    0.0000000000000000
     0.0000000000000000    0.0000000000000000   20.0000000000000000
   Si   Ge   H 
     4     6    16
Direct
  0.4735946150042899  0.5564607017254060  0.3832295926898694
  0.3696350131733833  0.5393371247685188  0.4352969511057667
  0.4502941845513285  0.4145435713398694  0.5648989949967977
  0.4395010328505456  0.6071932388020884  0.6067240484296361
  0.5408835681907568  0.4573691724316605  0.3944569371404039
  0.5301648876980731  0.6486094112836528  0.4359692674388307
  0.3852010312037693  0.5148408758901933  0.5521175791469716
  0.5574045352796169  0.4304691291997418  0.5131516189772034
  0.5464667546329124  0.6256224926160996  0.5555120748531150
  0.6150253396836648  0.5244871618482240  0.5670170345617260
  0.4146685048211139  0.3570274640439164  0.5326634092572151
  0.4588473565465238  0.3987074525908890  0.6375947979684782
  0.6009910360603324  0.3659233257129534  0.5193714264696800
  0.6844905826373306  0.5356207440272673  0.5336307828804836
  0.6273460620412111  0.5088374688149944  0.6423361152636732
  0.6101382029491367  0.4679531856913030  0.3604379323321266
  0.5065424659297805  0.3972320186173231  0.3587082763362602
  0.4638510511914234  0.5717336516694932  0.3103400094906705
  0.5830352134059573  0.6860771046367617  0.5888689869006902
  0.4480069204593020  0.5923582275546698  0.6796355631232489
  0.3972010072809977  0.6687258642201850  0.6003541402373320
  0.3151140084307370  0.5038004530744672  0.5848905652233088
  0.3335195040658762  0.4823438528505166  0.4026526367472255
  0.3268980599422601  0.6005173501562208  0.4283048354717585
  0.4887985485312261  0.7141143830191393  0.4275118176428768
  0.5993505134384439  0.6604945734144503  0.4022416053146481
 
  0.00000000E+00  0.00000000E+00  0.00000000E+00
  0.00000000E+00  0.00000000E+00  0.00000000E+00
  0.00000000E+00  0.00000000E+00  0.00000000E+00
  0.00000000E+00  0.00000000E+00  0.00000000E+00
  0.00000000E+00  0.00000000E+00  0.00000000E+00
  0.00000000E+00  0.00000000E+00  0.00000000E+00
  0.00000000E+00  0.00000000E+00  0.00000000E+00
  0.00000000E+00  0.00000000E+00  0.00000000E+00
  0.00000000E+00  0.00000000E+00  0.00000000E+00
  0.00000000E+00  0.00000000E+00  0.00000000E+00
  0.00000000E+00  0.00000000E+00  0.00000000E+00
  0.00000000E+00  0.00000000E+00  0.00000000E+00
  0.00000000E+00  0.00000000E+00  0.00000000E+00
  0.00000000E+00  0.00000000E+00  0.00000000E+00
  0.00000000E+00  0.00000000E+00  0.00000000E+00
  0.00000000E+00  0.00000000E+00  0.00000000E+00
  0.00000000E+00  0.00000000E+00  0.00000000E+00
  0.00000000E+00  0.00000000E+00  0.00000000E+00
  0.00000000E+00  0.00000000E+00  0.00000000E+00
  0.00000000E+00  0.00000000E+00  0.00000000E+00
  0.00000000E+00  0.00000000E+00  0.00000000E+00
  0.00000000E+00  0.00000000E+00  0.00000000E+00
  0.00000000E+00  0.00000000E+00  0.00000000E+00
  0.00000000E+00  0.00000000E+00  0.00000000E+00
  0.00000000E+00  0.00000000E+00  0.00000000E+00
  0.00000000E+00  0.00000000E+00  0.00000000E+00
