SiGeH16                                 
   1.00000000000000     
    20.0000000000000000    0.0000000000000000    0.0000000000000000
     0.0000000000000000   20.0000000000000000    0.0000000000000000
     0.0000000000000000    0.0000000000000000   20.0000000000000000
   Si   Ge   H 
     5     5    16
Direct
  0.4756691778958359  0.5559061700706546  0.3863280150245149
  0.3706755455120380  0.5390106000189506  0.4370878467469217
  0.5412776958857995  0.4585222400790746  0.3949891039865046
  0.5306984943866137  0.6473834955508716  0.4359900771962071
  0.3827895708951387  0.5148473449910420  0.5514941248033880
  0.5584798939499158  0.4314368433685428  0.5107185162151978
  0.5475832455436527  0.6258597128381791  0.5529267770017382
  0.6160308298883022  0.5248190568436544  0.5657256748950541
  0.4490895813162246  0.4152989701123945  0.5641481438422717
  0.4383669367046188  0.6066990687300821  0.6057070000292674
  0.4128964605408930  0.3544213223903319  0.5316181120932028
  0.4590062891433010  0.3987731239252537  0.6395907890696033
  0.6009517767108302  0.3662337920861373  0.5176930807681190
  0.6862888059980871  0.5356774162368030  0.5338255163434010
  0.6265698020972643  0.5090224126852393  0.6412360798443487
  0.6073782290016249  0.4689467653291485  0.3612378747227429
  0.5067585105239243  0.4014833708225258  0.3606955942770161
  0.4646180621005295  0.5710838898161084  0.3135605378015282
  0.5829877135420509  0.6864792723495019  0.5872136475785474
  0.4482140982903570  0.5915052176334572  0.6814385651928164
  0.3951461809956130  0.6713391245909335  0.6004323995671415
  0.3153827314796994  0.5042739777083056  0.5828012715631462
  0.3352577494057182  0.4824416771455438  0.4028890826162214
  0.3286261071460565  0.6005132713991234  0.4285138172236521
  0.4894910085439939  0.7094458136675063  0.4275603020467379
  0.5967355025019104  0.6589760496106384  0.4024950495507065
 
  0.00000000E+00  0.00000000E+00  0.00000000E+00
  0.00000000E+00  0.00000000E+00  0.00000000E+00
  0.00000000E+00  0.00000000E+00  0.00000000E+00
  0.00000000E+00  0.00000000E+00  0.00000000E+00
  0.00000000E+00  0.00000000E+00  0.00000000E+00
  0.00000000E+00  0.00000000E+00  0.00000000E+00
  0.00000000E+00  0.00000000E+00  0.00000000E+00
  0.00000000E+00  0.00000000E+00  0.00000000E+00
  0.00000000E+00  0.00000000E+00  0.00000000E+00
  0.00000000E+00  0.00000000E+00  0.00000000E+00
  0.00000000E+00  0.00000000E+00  0.00000000E+00
  0.00000000E+00  0.00000000E+00  0.00000000E+00
  0.00000000E+00  0.00000000E+00  0.00000000E+00
  0.00000000E+00  0.00000000E+00  0.00000000E+00
  0.00000000E+00  0.00000000E+00  0.00000000E+00
  0.00000000E+00  0.00000000E+00  0.00000000E+00
  0.00000000E+00  0.00000000E+00  0.00000000E+00
  0.00000000E+00  0.00000000E+00  0.00000000E+00
  0.00000000E+00  0.00000000E+00  0.00000000E+00
  0.00000000E+00  0.00000000E+00  0.00000000E+00
  0.00000000E+00  0.00000000E+00  0.00000000E+00
  0.00000000E+00  0.00000000E+00  0.00000000E+00
  0.00000000E+00  0.00000000E+00  0.00000000E+00
  0.00000000E+00  0.00000000E+00  0.00000000E+00
  0.00000000E+00  0.00000000E+00  0.00000000E+00
  0.00000000E+00  0.00000000E+00  0.00000000E+00
