SiGeH16                                 
   1.00000000000000     
    20.0000000000000000    0.0000000000000000    0.0000000000000000
     0.0000000000000000   20.0000000000000000    0.0000000000000000
     0.0000000000000000    0.0000000000000000   20.0000000000000000
   Si   Ge   H 
     5     5    16
Direct
  0.4746064131820162  0.5547455488856272  0.3840282193649642
  0.3697995576264717  0.5393154750514242  0.4350864361933517
  0.5410813293314476  0.4583722645921924  0.3951476922761898
  0.6146227871110526  0.5246942776657946  0.5659973347574905
  0.4396419728169931  0.6073777192120886  0.6068011928886747
  0.5305984955852949  0.6474461308240578  0.4362388737461913
  0.3831608138676543  0.5162971098418438  0.5523941784797941
  0.5593331183382801  0.4330434340795222  0.5113168394154570
  0.5471705698118967  0.6236445719062971  0.5555907038961152
  0.4504648504178661  0.4143681164795296  0.5649390572461641
  0.4141674862502143  0.3539916495774165  0.5316366998804654
  0.4598936414118384  0.3971355350917491  0.6403398628678900
  0.6026972103611143  0.3683378041668561  0.5175476550232432
  0.6816323956318229  0.5364897360751257  0.5346761761054353
  0.6256227129804017  0.5083699292406010  0.6382920509939396
  0.6070042047898809  0.4690631241325320  0.3611739697902294
  0.5076918849315035  0.4000040124624249  0.3620828667591951
  0.4647494157846168  0.5698828233953463  0.3111110327483786
  0.5835697696357371  0.6842307127580725  0.5889202293246782
  0.4477386494188877  0.5924102184058171  0.6797727631796420
  0.3990492381968878  0.6700147277880788  0.6005764797181925
  0.3130571270428462  0.5052092543866351  0.5850816492867068
  0.3334498231181371  0.4823440590282928  0.4027105387673657
  0.3280193447453001  0.6008796307064301  0.4262297580416288
  0.4886503068987764  0.7125681449326819  0.4280346714186720
  0.5994968807130476  0.6601639893135598  0.4011900678299560
 
  0.00000000E+00  0.00000000E+00  0.00000000E+00
  0.00000000E+00  0.00000000E+00  0.00000000E+00
  0.00000000E+00  0.00000000E+00  0.00000000E+00
  0.00000000E+00  0.00000000E+00  0.00000000E+00
  0.00000000E+00  0.00000000E+00  0.00000000E+00
  0.00000000E+00  0.00000000E+00  0.00000000E+00
  0.00000000E+00  0.00000000E+00  0.00000000E+00
  0.00000000E+00  0.00000000E+00  0.00000000E+00
  0.00000000E+00  0.00000000E+00  0.00000000E+00
  0.00000000E+00  0.00000000E+00  0.00000000E+00
  0.00000000E+00  0.00000000E+00  0.00000000E+00
  0.00000000E+00  0.00000000E+00  0.00000000E+00
  0.00000000E+00  0.00000000E+00  0.00000000E+00
  0.00000000E+00  0.00000000E+00  0.00000000E+00
  0.00000000E+00  0.00000000E+00  0.00000000E+00
  0.00000000E+00  0.00000000E+00  0.00000000E+00
  0.00000000E+00  0.00000000E+00  0.00000000E+00
  0.00000000E+00  0.00000000E+00  0.00000000E+00
  0.00000000E+00  0.00000000E+00  0.00000000E+00
  0.00000000E+00  0.00000000E+00  0.00000000E+00
  0.00000000E+00  0.00000000E+00  0.00000000E+00
  0.00000000E+00  0.00000000E+00  0.00000000E+00
  0.00000000E+00  0.00000000E+00  0.00000000E+00
  0.00000000E+00  0.00000000E+00  0.00000000E+00
  0.00000000E+00  0.00000000E+00  0.00000000E+00
  0.00000000E+00  0.00000000E+00  0.00000000E+00
