SiGeH16                                 
   1.00000000000000     
    20.0000000000000000    0.0000000000000000    0.0000000000000000
     0.0000000000000000   20.0000000000000000    0.0000000000000000
     0.0000000000000000    0.0000000000000000   20.0000000000000000
   Si   Ge   H 
     5     5    16
Direct
  0.4746693963994275  0.5546790943783080  0.3847223759117426
  0.3702674601823972  0.5386155120155252  0.4368507943674516
  0.5412872771481787  0.4583796801526603  0.3950716827873322
  0.3828091817935970  0.5149138975601844  0.5514042197553124
  0.6153563046043615  0.5246570380222337  0.5658239795538265
  0.5312468030636168  0.6477099023550750  0.4357505554112606
  0.5588736684016169  0.4335871570387226  0.5113646894793717
  0.5488181197788293  0.6240521961285310  0.5548554391635534
  0.4494678401727867  0.4158353707456683  0.5642508399938748
  0.4386952358794645  0.6061705858846622  0.6061722386809976
  0.4141969874973199  0.3547410915704603  0.5311565176941855
  0.4590518500626715  0.3989395069461565  0.6396728555941280
  0.6012718012782656  0.3683572435523814  0.5182702292959007
  0.6826504636026627  0.5353344660052244  0.5346149385440668
  0.6257245304385179  0.5084798159035842  0.6381987947363541
  0.6072325335699631  0.4690082394436601  0.3611371762471265
  0.5076932560201755  0.4000527730820309  0.3621533678976903
  0.4635144370506907  0.5697560859745678  0.3119838689661876
  0.5841547524958344  0.6847779772853997  0.5890249617333723
  0.4470931438255334  0.5910668475622103  0.6821414153597161
  0.3964647563900527  0.6713763549948268  0.6001264066280427
  0.3153255693710904  0.5043778861343782  0.5826505987781161
  0.3340215140014138  0.4821003579649599  0.4034319158835942
  0.3285723199554411  0.6003374380337831  0.4283351590999160
  0.4888475305282540  0.7125959261595440  0.4280142219970884
  0.5996632664878305  0.6604975551052661  0.3997377564398027
 
  0.00000000E+00  0.00000000E+00  0.00000000E+00
  0.00000000E+00  0.00000000E+00  0.00000000E+00
  0.00000000E+00  0.00000000E+00  0.00000000E+00
  0.00000000E+00  0.00000000E+00  0.00000000E+00
  0.00000000E+00  0.00000000E+00  0.00000000E+00
  0.00000000E+00  0.00000000E+00  0.00000000E+00
  0.00000000E+00  0.00000000E+00  0.00000000E+00
  0.00000000E+00  0.00000000E+00  0.00000000E+00
  0.00000000E+00  0.00000000E+00  0.00000000E+00
  0.00000000E+00  0.00000000E+00  0.00000000E+00
  0.00000000E+00  0.00000000E+00  0.00000000E+00
  0.00000000E+00  0.00000000E+00  0.00000000E+00
  0.00000000E+00  0.00000000E+00  0.00000000E+00
  0.00000000E+00  0.00000000E+00  0.00000000E+00
  0.00000000E+00  0.00000000E+00  0.00000000E+00
  0.00000000E+00  0.00000000E+00  0.00000000E+00
  0.00000000E+00  0.00000000E+00  0.00000000E+00
  0.00000000E+00  0.00000000E+00  0.00000000E+00
  0.00000000E+00  0.00000000E+00  0.00000000E+00
  0.00000000E+00  0.00000000E+00  0.00000000E+00
  0.00000000E+00  0.00000000E+00  0.00000000E+00
  0.00000000E+00  0.00000000E+00  0.00000000E+00
  0.00000000E+00  0.00000000E+00  0.00000000E+00
  0.00000000E+00  0.00000000E+00  0.00000000E+00
  0.00000000E+00  0.00000000E+00  0.00000000E+00
  0.00000000E+00  0.00000000E+00  0.00000000E+00
