SiGeH16                                 
   1.00000000000000     
    20.0000000000000000    0.0000000000000000    0.0000000000000000
     0.0000000000000000   20.0000000000000000    0.0000000000000000
     0.0000000000000000    0.0000000000000000   20.0000000000000000
   Si   Ge   H 
     5     5    16
Direct
  0.4748368312124214  0.5545661186836455  0.3853947743923953
  0.3701194674598440  0.5388183096563068  0.4368684749997840
  0.5411808839986989  0.4579861938766570  0.3969835031828026
  0.3833949758774580  0.5149502713999183  0.5511950414685813
  0.5577553979305847  0.4325542360337877  0.5105400795991812
  0.5309038109645741  0.6484586584459677  0.4354933072878495
  0.5479206128612759  0.6256340104404643  0.5547336876745206
  0.6148455095453116  0.5232660006909171  0.5650844620878317
  0.4508806671116687  0.4161953939596046  0.5630512788961681
  0.4381416354525811  0.6067665775800677  0.6062930068351378
  0.4145575784106370  0.3553055685837450  0.5306850321949526
  0.4605811371153905  0.3994975181036082  0.6385031755720618
  0.5985534883607144  0.3698571391687651  0.5169399012836848
  0.6850186025606178  0.5344134957979350  0.5330717299483325
  0.6260769259667853  0.5066249862732590  0.6403656649916485
  0.6072411707815846  0.4687703815639779  0.3632693399269016
  0.5074492915994995  0.4002325360257899  0.3630733011443539
  0.4643980691612839  0.5685025550303493  0.3123705020457592
  0.5842772411190182  0.6855365871160473  0.5892990405406238
  0.4469622936903477  0.5912590396443917  0.6821367003997452
  0.3950433978428194  0.6714553284197891  0.6007084841044303
  0.3162906243592616  0.5032379645309319  0.5827546605125562
  0.3341105300032723  0.4821418889743825  0.4034848719056754
  0.3284281314963877  0.6005039325811978  0.4282827475751532
  0.4884851714899625  0.7131762228794898  0.4266170645146445
  0.5995165536279856  0.6606890845390083  0.3997171669152144
 
  0.00000000E+00  0.00000000E+00  0.00000000E+00
  0.00000000E+00  0.00000000E+00  0.00000000E+00
  0.00000000E+00  0.00000000E+00  0.00000000E+00
  0.00000000E+00  0.00000000E+00  0.00000000E+00
  0.00000000E+00  0.00000000E+00  0.00000000E+00
  0.00000000E+00  0.00000000E+00  0.00000000E+00
  0.00000000E+00  0.00000000E+00  0.00000000E+00
  0.00000000E+00  0.00000000E+00  0.00000000E+00
  0.00000000E+00  0.00000000E+00  0.00000000E+00
  0.00000000E+00  0.00000000E+00  0.00000000E+00
  0.00000000E+00  0.00000000E+00  0.00000000E+00
  0.00000000E+00  0.00000000E+00  0.00000000E+00
  0.00000000E+00  0.00000000E+00  0.00000000E+00
  0.00000000E+00  0.00000000E+00  0.00000000E+00
  0.00000000E+00  0.00000000E+00  0.00000000E+00
  0.00000000E+00  0.00000000E+00  0.00000000E+00
  0.00000000E+00  0.00000000E+00  0.00000000E+00
  0.00000000E+00  0.00000000E+00  0.00000000E+00
  0.00000000E+00  0.00000000E+00  0.00000000E+00
  0.00000000E+00  0.00000000E+00  0.00000000E+00
  0.00000000E+00  0.00000000E+00  0.00000000E+00
  0.00000000E+00  0.00000000E+00  0.00000000E+00
  0.00000000E+00  0.00000000E+00  0.00000000E+00
  0.00000000E+00  0.00000000E+00  0.00000000E+00
  0.00000000E+00  0.00000000E+00  0.00000000E+00
  0.00000000E+00  0.00000000E+00  0.00000000E+00
