SiGeH16                                 
   1.00000000000000     
    20.0000000000000000    0.0000000000000000    0.0000000000000000
     0.0000000000000000   20.0000000000000000    0.0000000000000000
     0.0000000000000000    0.0000000000000000   20.0000000000000000
   Si   Ge   H 
     5     5    16
Direct
  0.4755727909423726  0.5560605430944108  0.3855869124447437
  0.3698656086683556  0.5394193934354803  0.4349689037465723
  0.5412322902688231  0.4588986227770846  0.3954799890448868
  0.5307002839296473  0.6468413136550737  0.4362738558943349
  0.6149270694245885  0.5248330612535810  0.5653966302391780
  0.3816331144459681  0.5146704719963040  0.5519972410818568
  0.5592429296861070  0.4330084631958186  0.5114645238889040
  0.5485251245341587  0.6242182864640711  0.5529680360679521
  0.4502929571496423  0.4138229157771107  0.5647690694695982
  0.4394219964030697  0.6079039594667606  0.6069134988214842
  0.4148898967048709  0.3528697846875630  0.5315589202267503
  0.4598383561235124  0.3971080693950810  0.6402331925368117
  0.6025437354310625  0.3682832796028563  0.5177833683518074
  0.6823558785705970  0.5353299918662486  0.5344198687998869
  0.6249585013747136  0.5096377774572005  0.6380301260882959
  0.6072163799714687  0.4691719917670696  0.3614667905270892
  0.5069950513080812  0.4012493219471409  0.3620520923508792
  0.4657263767931923  0.5713373172765230  0.3126602701307490
  0.5848104561719580  0.6847524352177317  0.5864785563522261
  0.4488780491957982  0.5928345600708980  0.6827354812798632
  0.3969673511768832  0.6729802139535792  0.6010700598208629
  0.3115937719390161  0.5036198237391716  0.5848199173574429
  0.3345381324226508  0.4827996625429023  0.4008263237162026
  0.3279088740469049  0.6009588325583266  0.4264845574461305
  0.4897325084897588  0.7091298625758498  0.4288744662645882
  0.5966025148268059  0.6586600442261599  0.4016043480509003
 
  0.00000000E+00  0.00000000E+00  0.00000000E+00
  0.00000000E+00  0.00000000E+00  0.00000000E+00
  0.00000000E+00  0.00000000E+00  0.00000000E+00
  0.00000000E+00  0.00000000E+00  0.00000000E+00
  0.00000000E+00  0.00000000E+00  0.00000000E+00
  0.00000000E+00  0.00000000E+00  0.00000000E+00
  0.00000000E+00  0.00000000E+00  0.00000000E+00
  0.00000000E+00  0.00000000E+00  0.00000000E+00
  0.00000000E+00  0.00000000E+00  0.00000000E+00
  0.00000000E+00  0.00000000E+00  0.00000000E+00
  0.00000000E+00  0.00000000E+00  0.00000000E+00
  0.00000000E+00  0.00000000E+00  0.00000000E+00
  0.00000000E+00  0.00000000E+00  0.00000000E+00
  0.00000000E+00  0.00000000E+00  0.00000000E+00
  0.00000000E+00  0.00000000E+00  0.00000000E+00
  0.00000000E+00  0.00000000E+00  0.00000000E+00
  0.00000000E+00  0.00000000E+00  0.00000000E+00
  0.00000000E+00  0.00000000E+00  0.00000000E+00
  0.00000000E+00  0.00000000E+00  0.00000000E+00
  0.00000000E+00  0.00000000E+00  0.00000000E+00
  0.00000000E+00  0.00000000E+00  0.00000000E+00
  0.00000000E+00  0.00000000E+00  0.00000000E+00
  0.00000000E+00  0.00000000E+00  0.00000000E+00
  0.00000000E+00  0.00000000E+00  0.00000000E+00
  0.00000000E+00  0.00000000E+00  0.00000000E+00
  0.00000000E+00  0.00000000E+00  0.00000000E+00
