SiGeH16                                 
   1.00000000000000     
    20.0000000000000000    0.0000000000000000    0.0000000000000000
     0.0000000000000000   20.0000000000000000    0.0000000000000000
     0.0000000000000000    0.0000000000000000   20.0000000000000000
   Si   Ge   H 
     4     6    16
Direct
  0.3676825838581834  0.5392037038253719  0.4354043282787714
  0.5424862205636600  0.4570618770504069  0.3951246985890791
  0.5317405475696262  0.6487763385449412  0.4367449179248126
  0.6148443227352161  0.5248802490419493  0.5651567644379440
  0.4753672991930884  0.5562609638648581  0.3846013582817136
  0.3812314871280549  0.5146111983121386  0.5521675992189330
  0.5595085286263028  0.4326441944433128  0.5115251297721599
  0.5487549612918059  0.6245521985518110  0.5531856626212033
  0.4502957849863236  0.4139420014838393  0.5645145251908232
  0.4394317886654378  0.6079022894455477  0.6066321226584748
  0.4148223879642003  0.3529997275650416  0.5314225248515498
  0.4599105014163811  0.3973605336271859  0.6399981783477529
  0.6026650350615910  0.3679137078017405  0.5191354588649872
  0.6823227494325650  0.5353499748200434  0.5343175780697038
  0.6247711279916288  0.5096712866687412  0.6378171384727764
  0.6085319565509693  0.4673706212556752  0.3612349530545060
  0.5081362863914833  0.3994043284142137  0.3617665419377332
  0.4652311575681267  0.5721638769434563  0.3087122480867066
  0.5849228062219964  0.6845488110911475  0.5878641000422320
  0.4489690520838892  0.5927118923075554  0.6824185138225758
  0.3969098424486575  0.6729111450719287  0.6008857403449781
  0.3118147269444904  0.5033260348414643  0.5862340435841631
  0.3324405642743997  0.4825247195485716  0.4014020265834759
  0.3258169471135943  0.6007548939279417  0.4270710075606701
  0.4906555453413759  0.7110279103883386  0.4294089474347444
  0.5977057885769383  0.6605255211627963  0.4021708919675268
 
  0.00000000E+00  0.00000000E+00  0.00000000E+00
  0.00000000E+00  0.00000000E+00  0.00000000E+00
  0.00000000E+00  0.00000000E+00  0.00000000E+00
  0.00000000E+00  0.00000000E+00  0.00000000E+00
  0.00000000E+00  0.00000000E+00  0.00000000E+00
  0.00000000E+00  0.00000000E+00  0.00000000E+00
  0.00000000E+00  0.00000000E+00  0.00000000E+00
  0.00000000E+00  0.00000000E+00  0.00000000E+00
  0.00000000E+00  0.00000000E+00  0.00000000E+00
  0.00000000E+00  0.00000000E+00  0.00000000E+00
  0.00000000E+00  0.00000000E+00  0.00000000E+00
  0.00000000E+00  0.00000000E+00  0.00000000E+00
  0.00000000E+00  0.00000000E+00  0.00000000E+00
  0.00000000E+00  0.00000000E+00  0.00000000E+00
  0.00000000E+00  0.00000000E+00  0.00000000E+00
  0.00000000E+00  0.00000000E+00  0.00000000E+00
  0.00000000E+00  0.00000000E+00  0.00000000E+00
  0.00000000E+00  0.00000000E+00  0.00000000E+00
  0.00000000E+00  0.00000000E+00  0.00000000E+00
  0.00000000E+00  0.00000000E+00  0.00000000E+00
  0.00000000E+00  0.00000000E+00  0.00000000E+00
  0.00000000E+00  0.00000000E+00  0.00000000E+00
  0.00000000E+00  0.00000000E+00  0.00000000E+00
  0.00000000E+00  0.00000000E+00  0.00000000E+00
  0.00000000E+00  0.00000000E+00  0.00000000E+00
  0.00000000E+00  0.00000000E+00  0.00000000E+00
