SiGeH16                                 
   1.00000000000000     
    20.0000000000000000    0.0000000000000000    0.0000000000000000
     0.0000000000000000   20.0000000000000000    0.0000000000000000
     0.0000000000000000    0.0000000000000000   20.0000000000000000
   Si   Ge   H 
     5     5    16
Direct
  0.4748361303364064  0.5546327566429810  0.3853244735195602
  0.3701619404131833  0.5384653221898432  0.4367738300936495
  0.5410618288582327  0.4578694205504519  0.3945414275319479
  0.3834158893991031  0.5150142357480618  0.5512257052286458
  0.5475551217575116  0.6251515570096799  0.5544049445185522
  0.5310716775800302  0.6472961699328081  0.4376009425023781
  0.5581174840793039  0.4320994647923584  0.5106281612492083
  0.6146367092879998  0.5261814852541846  0.5657908331220227
  0.4489930697179290  0.4152174129148705  0.5641041388481582
  0.4401714818416949  0.6064710882117410  0.6049940251050359
  0.4128485678744269  0.3543287456146729  0.5315868917827089
  0.4589907979938914  0.3987716660337099  0.6395590407315552
  0.6014687432301642  0.3675951581226684  0.5182145178784339
  0.6847927654769350  0.5370132927828521  0.5336448643094016
  0.6258740569159187  0.5092576508644981  0.6410028732171753
  0.6071815864120254  0.4688206226916733  0.3611120581035152
  0.5073581941089884  0.4001015332089040  0.3606971168125312
  0.4642818863221407  0.5707984596126821  0.3127779697954125
  0.5815576274134031  0.6834811338872342  0.5872907666465963
  0.4486952805552633  0.5911786553648568  0.6809143717728432
  0.3969411505679972  0.6710873938716375  0.5994612997148820
  0.3162003189548699  0.5054616752822554  0.5832756834196644
  0.3339154697110374  0.4819662838109338  0.4033447215582200
  0.3286363523503368  0.6003003862843173  0.4283725617416323
  0.4886561707975829  0.7120130818562913  0.4286045081124072
  0.5995496980436030  0.6598253474638440  0.4016692726838662
 
  0.00000000E+00  0.00000000E+00  0.00000000E+00
  0.00000000E+00  0.00000000E+00  0.00000000E+00
  0.00000000E+00  0.00000000E+00  0.00000000E+00
  0.00000000E+00  0.00000000E+00  0.00000000E+00
  0.00000000E+00  0.00000000E+00  0.00000000E+00
  0.00000000E+00  0.00000000E+00  0.00000000E+00
  0.00000000E+00  0.00000000E+00  0.00000000E+00
  0.00000000E+00  0.00000000E+00  0.00000000E+00
  0.00000000E+00  0.00000000E+00  0.00000000E+00
  0.00000000E+00  0.00000000E+00  0.00000000E+00
  0.00000000E+00  0.00000000E+00  0.00000000E+00
  0.00000000E+00  0.00000000E+00  0.00000000E+00
  0.00000000E+00  0.00000000E+00  0.00000000E+00
  0.00000000E+00  0.00000000E+00  0.00000000E+00
  0.00000000E+00  0.00000000E+00  0.00000000E+00
  0.00000000E+00  0.00000000E+00  0.00000000E+00
  0.00000000E+00  0.00000000E+00  0.00000000E+00
  0.00000000E+00  0.00000000E+00  0.00000000E+00
  0.00000000E+00  0.00000000E+00  0.00000000E+00
  0.00000000E+00  0.00000000E+00  0.00000000E+00
  0.00000000E+00  0.00000000E+00  0.00000000E+00
  0.00000000E+00  0.00000000E+00  0.00000000E+00
  0.00000000E+00  0.00000000E+00  0.00000000E+00
  0.00000000E+00  0.00000000E+00  0.00000000E+00
  0.00000000E+00  0.00000000E+00  0.00000000E+00
  0.00000000E+00  0.00000000E+00  0.00000000E+00
