SiGeH16                                 
   1.00000000000000     
    20.0000000000000000    0.0000000000000000    0.0000000000000000
     0.0000000000000000   20.0000000000000000    0.0000000000000000
     0.0000000000000000    0.0000000000000000   20.0000000000000000
   Si   Ge   H 
     5     5    16
Direct
  0.4747610690713628  0.5547525742394939  0.3846647536500569
  0.3706756568408593  0.5381668884825004  0.4370570769624678
  0.5407346574780405  0.4579970898153434  0.3950439981007463
  0.3845235999765180  0.5135134190726944  0.5513117012678705
  0.4493726752599727  0.4162434429234665  0.5637600632152839
  0.5310145020894623  0.6482515285574380  0.4355266929515764
  0.5564004857572371  0.4319913151010653  0.5113556251390747
  0.5482187491171615  0.6262298157198956  0.5549839806243142
  0.6156876818729629  0.5244537085418486  0.5663368751195748
  0.4385886737824407  0.6060144888735906  0.6062077561294217
  0.4144630678320596  0.3578980651328294  0.5321578047264666
  0.4589458773290431  0.4006614388898413  0.6364100265194423
  0.5989119763794051  0.3668318075860171  0.5182583641343825
  0.6856305151477500  0.5345466540982073  0.5335579655023821
  0.6271572269988894  0.5078351664631171  0.6415738587969742
  0.6073312281622734  0.4684949291500189  0.3623812509622439
  0.5072295278414671  0.4002870127639113  0.3608606551041120
  0.4636361219394729  0.5698598316375580  0.3119509781496106
  0.5836329680022203  0.6869109075910202  0.5891853155847286
  0.4471807892977608  0.5910567695922637  0.6821667292501274
  0.3946373237941643  0.6700429978593263  0.6001035312160923
  0.3170852745808048  0.5028791538667150  0.5825871088001406
  0.3342095991853853  0.4819066956210776  0.4033938602246963
  0.3288112326736012  0.5999237193652718  0.4296707891221061
  0.4885492345893994  0.7129596716241338  0.4266865355382734
  0.5995802850002718  0.6606909074313592  0.3997237032078380
 
  0.00000000E+00  0.00000000E+00  0.00000000E+00
  0.00000000E+00  0.00000000E+00  0.00000000E+00
  0.00000000E+00  0.00000000E+00  0.00000000E+00
  0.00000000E+00  0.00000000E+00  0.00000000E+00
  0.00000000E+00  0.00000000E+00  0.00000000E+00
  0.00000000E+00  0.00000000E+00  0.00000000E+00
  0.00000000E+00  0.00000000E+00  0.00000000E+00
  0.00000000E+00  0.00000000E+00  0.00000000E+00
  0.00000000E+00  0.00000000E+00  0.00000000E+00
  0.00000000E+00  0.00000000E+00  0.00000000E+00
  0.00000000E+00  0.00000000E+00  0.00000000E+00
  0.00000000E+00  0.00000000E+00  0.00000000E+00
  0.00000000E+00  0.00000000E+00  0.00000000E+00
  0.00000000E+00  0.00000000E+00  0.00000000E+00
  0.00000000E+00  0.00000000E+00  0.00000000E+00
  0.00000000E+00  0.00000000E+00  0.00000000E+00
  0.00000000E+00  0.00000000E+00  0.00000000E+00
  0.00000000E+00  0.00000000E+00  0.00000000E+00
  0.00000000E+00  0.00000000E+00  0.00000000E+00
  0.00000000E+00  0.00000000E+00  0.00000000E+00
  0.00000000E+00  0.00000000E+00  0.00000000E+00
  0.00000000E+00  0.00000000E+00  0.00000000E+00
  0.00000000E+00  0.00000000E+00  0.00000000E+00
  0.00000000E+00  0.00000000E+00  0.00000000E+00
  0.00000000E+00  0.00000000E+00  0.00000000E+00
  0.00000000E+00  0.00000000E+00  0.00000000E+00
