SiGeH16                                 
   1.00000000000000     
    20.0000000000000000    0.0000000000000000    0.0000000000000000
     0.0000000000000000   20.0000000000000000    0.0000000000000000
     0.0000000000000000    0.0000000000000000   20.0000000000000000
   Si   Ge   H 
     5     5    16
Direct
  0.4747037103195181  0.5547026311240961  0.3846537421059790
  0.3693550758463506  0.5388889006185202  0.4346083159406506
  0.5409841256844065  0.4582164582001925  0.3950475158987898
  0.5485458056869607  0.6235323453445660  0.5545255033648574
  0.6135463416413873  0.5262472699210166  0.5654279990375918
  0.5311299744668053  0.6466670617047514  0.4379008566524336
  0.3821912609122525  0.5148488583108364  0.5517124713067816
  0.5588726410031188  0.4336831087337017  0.5113518851315940
  0.4501648112197594  0.4135952995516102  0.5647170864591079
  0.4412041522469941  0.6077289214970373  0.6063007659499603
  0.4147963228855616  0.3525680895521867  0.5315914624508553
  0.4597885123805158  0.3970042784753914  0.6402153615619489
  0.6031466264869280  0.3697007869491148  0.5182587429838660
  0.6808664031401842  0.5369162818765828  0.5342339962546290
  0.6242041174981231  0.5100419155240318  0.6377983573977286
  0.6069643724078925  0.4690460097859461  0.3612665641949866
  0.5076320436537970  0.3998288426164097  0.3619813483182486
  0.4653862621229050  0.5710234669699304  0.3119201581997242
  0.5836244749437249  0.6816719291146652  0.5866174179065382
  0.4493130488451395  0.5925296718684804  0.6822924424287036
  0.3987864908122288  0.6728210585384118  0.6002192055545342
  0.3123286281854130  0.5048298756464159  0.5852272184881563
  0.3331296452846090  0.4823819950670561  0.4012059649398718
  0.3278882480653069  0.6007153178852718  0.4262287726288133
  0.4889554359188997  0.7116806538181817  0.4299015410078441
  0.5994614683412113  0.6595289713055993  0.4027123038358019
 
  0.00000000E+00  0.00000000E+00  0.00000000E+00
  0.00000000E+00  0.00000000E+00  0.00000000E+00
  0.00000000E+00  0.00000000E+00  0.00000000E+00
  0.00000000E+00  0.00000000E+00  0.00000000E+00
  0.00000000E+00  0.00000000E+00  0.00000000E+00
  0.00000000E+00  0.00000000E+00  0.00000000E+00
  0.00000000E+00  0.00000000E+00  0.00000000E+00
  0.00000000E+00  0.00000000E+00  0.00000000E+00
  0.00000000E+00  0.00000000E+00  0.00000000E+00
  0.00000000E+00  0.00000000E+00  0.00000000E+00
  0.00000000E+00  0.00000000E+00  0.00000000E+00
  0.00000000E+00  0.00000000E+00  0.00000000E+00
  0.00000000E+00  0.00000000E+00  0.00000000E+00
  0.00000000E+00  0.00000000E+00  0.00000000E+00
  0.00000000E+00  0.00000000E+00  0.00000000E+00
  0.00000000E+00  0.00000000E+00  0.00000000E+00
  0.00000000E+00  0.00000000E+00  0.00000000E+00
  0.00000000E+00  0.00000000E+00  0.00000000E+00
  0.00000000E+00  0.00000000E+00  0.00000000E+00
  0.00000000E+00  0.00000000E+00  0.00000000E+00
  0.00000000E+00  0.00000000E+00  0.00000000E+00
  0.00000000E+00  0.00000000E+00  0.00000000E+00
  0.00000000E+00  0.00000000E+00  0.00000000E+00
  0.00000000E+00  0.00000000E+00  0.00000000E+00
  0.00000000E+00  0.00000000E+00  0.00000000E+00
  0.00000000E+00  0.00000000E+00  0.00000000E+00
