SiGeH16                                 
   1.00000000000000     
    20.0000000000000000    0.0000000000000000    0.0000000000000000
     0.0000000000000000   20.0000000000000000    0.0000000000000000
     0.0000000000000000    0.0000000000000000   20.0000000000000000
   Si   Ge   H 
     4     6    16
Direct
  0.4736455169117276  0.5562805554320366  0.3838994385802890
  0.3688354998068916  0.5396131361903391  0.4345759125633928
  0.5591090893046756  0.4332064128631723  0.5130780021615898
  0.6139699178695303  0.5231844692677695  0.5652776068160832
  0.5415094724188009  0.4578630549463306  0.3967241540080958
  0.5306579620032371  0.6484758946637905  0.4357274662016474
  0.3824600158197254  0.5147803037113370  0.5515176154369474
  0.5487569633349646  0.6237362189575689  0.5546119777354939
  0.4520597278000302  0.4144515791046617  0.5643149462616156
  0.4391783205116850  0.6080544669883474  0.6075278308007193
  0.4166611957014089  0.3536242763487173  0.5308909076285140
  0.4602408937130015  0.3976675624977556  0.6399459558748909
  0.6009728696127499  0.3711461445465605  0.5191038023996812
  0.6810959899465542  0.5338479248207536  0.5336892605678988
  0.6249212695588872  0.5081145861897969  0.6378843176984887
  0.6100187643032912  0.4684832451220625  0.3611554059590174
  0.5071162564672115  0.3971746043053569  0.3620077457439271
  0.4643702855136101  0.5705200367449447  0.3107462806060118
  0.5860888235671674  0.6835134376287206  0.5883387919680340
  0.4476435477143411  0.5926445934686025  0.6834337974402975
  0.3968527702160992  0.6731836787747679  0.6014099496668001
  0.3127197908076231  0.5025645211776190  0.5845562313166190
  0.3332131523189692  0.4826984185028453  0.4012698716108162
  0.3263946180276671  0.6009141410710550  0.4268443872806479
  0.4892337905060936  0.7140614768214533  0.4285783660807361
  0.5992434962440498  0.6605952598536403  0.4008069775917424
 
  0.00000000E+00  0.00000000E+00  0.00000000E+00
  0.00000000E+00  0.00000000E+00  0.00000000E+00
  0.00000000E+00  0.00000000E+00  0.00000000E+00
  0.00000000E+00  0.00000000E+00  0.00000000E+00
  0.00000000E+00  0.00000000E+00  0.00000000E+00
  0.00000000E+00  0.00000000E+00  0.00000000E+00
  0.00000000E+00  0.00000000E+00  0.00000000E+00
  0.00000000E+00  0.00000000E+00  0.00000000E+00
  0.00000000E+00  0.00000000E+00  0.00000000E+00
  0.00000000E+00  0.00000000E+00  0.00000000E+00
  0.00000000E+00  0.00000000E+00  0.00000000E+00
  0.00000000E+00  0.00000000E+00  0.00000000E+00
  0.00000000E+00  0.00000000E+00  0.00000000E+00
  0.00000000E+00  0.00000000E+00  0.00000000E+00
  0.00000000E+00  0.00000000E+00  0.00000000E+00
  0.00000000E+00  0.00000000E+00  0.00000000E+00
  0.00000000E+00  0.00000000E+00  0.00000000E+00
  0.00000000E+00  0.00000000E+00  0.00000000E+00
  0.00000000E+00  0.00000000E+00  0.00000000E+00
  0.00000000E+00  0.00000000E+00  0.00000000E+00
  0.00000000E+00  0.00000000E+00  0.00000000E+00
  0.00000000E+00  0.00000000E+00  0.00000000E+00
  0.00000000E+00  0.00000000E+00  0.00000000E+00
  0.00000000E+00  0.00000000E+00  0.00000000E+00
  0.00000000E+00  0.00000000E+00  0.00000000E+00
  0.00000000E+00  0.00000000E+00  0.00000000E+00
