SiGeH16                                 
   1.00000000000000     
    20.0000000000000000    0.0000000000000000    0.0000000000000000
     0.0000000000000000   20.0000000000000000    0.0000000000000000
     0.0000000000000000    0.0000000000000000   20.0000000000000000
   Si   Ge   H 
     4     6    16
Direct
  0.4737223770786869  0.5561947856902592  0.3838169158395885
  0.3692034186442257  0.5398723344740404  0.4350577386246144
  0.5587698114623976  0.4311719947213746  0.5122839826035488
  0.4392009238345409  0.6078723325617545  0.6068021772695573
  0.5413174443174995  0.4573763820873182  0.3962862239186506
  0.5300587521368314  0.6487703092315513  0.4359606793880246
  0.3840729182716700  0.5162966087607685  0.5520198826561469
  0.5462260333253184  0.6249790793758692  0.5552966640830803
  0.6142090098544273  0.5232952597987151  0.5658383891157115
  0.4518267413327166  0.4145165541982223  0.5642682495922813
  0.4145866269536498  0.3545823498540699  0.5312168488476061
  0.4603251644359503  0.3977452059549620  0.6398709889295731
  0.6004397979689671  0.3690277302290639  0.5183107569765255
  0.6838611139770663  0.5354485324001672  0.5332204915486045
  0.6262933776917379  0.5077162279428507  0.6411874023707185
  0.6099700743740755  0.4682092960362709  0.3611378024847838
  0.5067957011858013  0.3973301312480402  0.3606134452195420
  0.4645778775365343  0.5705611418602246  0.3106949863448349
  0.5836173695215408  0.6847588316629469  0.5889055466912367
  0.4478568656540247  0.5925168508803722  0.6796096303596570
  0.3976605674258522  0.6699386722863281  0.6009452001661728
  0.3143847825771644  0.5039485404854602  0.5851193544062170
  0.3334012854170894  0.4825295527405729  0.4026799701414703
  0.3265554706263600  0.6009800535543590  0.4270157342998502
  0.4887263939516160  0.7142871431757172  0.4274864699494287
  0.5993101004442494  0.6604740987887325  0.4012714681725788
 
  0.00000000E+00  0.00000000E+00  0.00000000E+00
  0.00000000E+00  0.00000000E+00  0.00000000E+00
  0.00000000E+00  0.00000000E+00  0.00000000E+00
  0.00000000E+00  0.00000000E+00  0.00000000E+00
  0.00000000E+00  0.00000000E+00  0.00000000E+00
  0.00000000E+00  0.00000000E+00  0.00000000E+00
  0.00000000E+00  0.00000000E+00  0.00000000E+00
  0.00000000E+00  0.00000000E+00  0.00000000E+00
  0.00000000E+00  0.00000000E+00  0.00000000E+00
  0.00000000E+00  0.00000000E+00  0.00000000E+00
  0.00000000E+00  0.00000000E+00  0.00000000E+00
  0.00000000E+00  0.00000000E+00  0.00000000E+00
  0.00000000E+00  0.00000000E+00  0.00000000E+00
  0.00000000E+00  0.00000000E+00  0.00000000E+00
  0.00000000E+00  0.00000000E+00  0.00000000E+00
  0.00000000E+00  0.00000000E+00  0.00000000E+00
  0.00000000E+00  0.00000000E+00  0.00000000E+00
  0.00000000E+00  0.00000000E+00  0.00000000E+00
  0.00000000E+00  0.00000000E+00  0.00000000E+00
  0.00000000E+00  0.00000000E+00  0.00000000E+00
  0.00000000E+00  0.00000000E+00  0.00000000E+00
  0.00000000E+00  0.00000000E+00  0.00000000E+00
  0.00000000E+00  0.00000000E+00  0.00000000E+00
  0.00000000E+00  0.00000000E+00  0.00000000E+00
  0.00000000E+00  0.00000000E+00  0.00000000E+00
  0.00000000E+00  0.00000000E+00  0.00000000E+00
