SYSTEM=SiGe
NSW=200
ENCUT=400
ISMEAR=0
EDIFFG=-0.02
EDIFF=1e-06
NPAR=2
ISIF=2
ISTART=0
IBRION=2
