SiGeH16                                 
   1.00000000000000     
    20.0000000000000000    0.0000000000000000    0.0000000000000000
     0.0000000000000000   20.0000000000000000    0.0000000000000000
     0.0000000000000000    0.0000000000000000   20.0000000000000000
   Si   Ge   H 
     5     5    16
Direct
  0.4738042712188101  0.5563372182058278  0.3843196055120580
  0.3691848182676226  0.5390542827091509  0.4348117508029822
  0.5565141591249537  0.4319737618653361  0.5130824385650766
  0.5476785193979200  0.6250988551170602  0.5542898728285771
  0.4519013965360114  0.4146738448495709  0.5635798672427785
  0.5406848285094911  0.4571735671945336  0.3965861578977063
  0.5305191339707029  0.6480517633466939  0.4376316166159088
  0.3847341705759659  0.5135234097265945  0.5511850624202260
  0.6125988424830001  0.5246379307246980  0.5654067711057944
  0.4409015853608131  0.6078430071310779  0.6062119451772114
  0.4170416898659489  0.3564720470473025  0.5317542961837026
  0.4604038478603745  0.3992697153380753  0.6364109021613638
  0.5989979545005355  0.3704780436064344  0.5196508300990733
  0.6824530638062172  0.5346691203780657  0.5324620191299557
  0.6249405766892194  0.5090825992602661  0.6407358957996722
  0.6098862161468138  0.4679016677356273  0.3624930434784345
  0.5065144310988723  0.3971284882548667  0.3605388434504932
  0.4652009129039800  0.5716437830412565  0.3113721000635018
  0.5835269224712649  0.6825136194137648  0.5866946191874354
  0.4493905084741273  0.5924794225286288  0.6821107524364531
  0.3967185755960246  0.6717105669243212  0.6000850803146531
  0.3152832253040699  0.5024099904323985  0.5850712971428488
  0.3332206077498087  0.4825005699331002  0.4012892226606855
  0.3266687166385978  0.6003962250229410  0.4281979860837326
  0.4890471359832333  0.7134500694459173  0.4291518823341352
  0.5991538894656141  0.6599264307664943  0.4027931413055368
 
  0.00000000E+00  0.00000000E+00  0.00000000E+00
  0.00000000E+00  0.00000000E+00  0.00000000E+00
  0.00000000E+00  0.00000000E+00  0.00000000E+00
  0.00000000E+00  0.00000000E+00  0.00000000E+00
  0.00000000E+00  0.00000000E+00  0.00000000E+00
  0.00000000E+00  0.00000000E+00  0.00000000E+00
  0.00000000E+00  0.00000000E+00  0.00000000E+00
  0.00000000E+00  0.00000000E+00  0.00000000E+00
  0.00000000E+00  0.00000000E+00  0.00000000E+00
  0.00000000E+00  0.00000000E+00  0.00000000E+00
  0.00000000E+00  0.00000000E+00  0.00000000E+00
  0.00000000E+00  0.00000000E+00  0.00000000E+00
  0.00000000E+00  0.00000000E+00  0.00000000E+00
  0.00000000E+00  0.00000000E+00  0.00000000E+00
  0.00000000E+00  0.00000000E+00  0.00000000E+00
  0.00000000E+00  0.00000000E+00  0.00000000E+00
  0.00000000E+00  0.00000000E+00  0.00000000E+00
  0.00000000E+00  0.00000000E+00  0.00000000E+00
  0.00000000E+00  0.00000000E+00  0.00000000E+00
  0.00000000E+00  0.00000000E+00  0.00000000E+00
  0.00000000E+00  0.00000000E+00  0.00000000E+00
  0.00000000E+00  0.00000000E+00  0.00000000E+00
  0.00000000E+00  0.00000000E+00  0.00000000E+00
  0.00000000E+00  0.00000000E+00  0.00000000E+00
  0.00000000E+00  0.00000000E+00  0.00000000E+00
  0.00000000E+00  0.00000000E+00  0.00000000E+00
