SiGeH16                                 
   1.00000000000000     
    20.0000000000000000    0.0000000000000000    0.0000000000000000
     0.0000000000000000   20.0000000000000000    0.0000000000000000
     0.0000000000000000    0.0000000000000000   20.0000000000000000
   Si   Ge   H 
     2     8    16
Direct
  0.4751070895485725  0.5567718652148343  0.3821792499825207
  0.6153379907669603  0.5246527619413044  0.5663409330986013
  0.3681537291859698  0.5394695121711308  0.4342561822935025
  0.5420080828398781  0.4577664468198961  0.3942066513206584
  0.5313217567258306  0.6484726329009405  0.4356016621253005
  0.3817438959020407  0.5143082697521137  0.5536874826362350
  0.5595110824344900  0.4325524967211436  0.5130984417226756
  0.5487841736846093  0.6239886643854362  0.5546513098479480
  0.4503329635748088  0.4133822786427856  0.5657530036678367
  0.4394366666316785  0.6079029229121673  0.6079833770402274
  0.4148970382188608  0.3528096596105428  0.5319505445145580
  0.4594858983040169  0.3959122519070775  0.6411204237764565
  0.6028024874848938  0.3678284838725432  0.5193579797702839
  0.6824004923266500  0.5352644389224182  0.5347434117640475
  0.6261978114741211  0.5095144914940661  0.6389047365676888
  0.6109703374147770  0.4674079575591179  0.3592928526683536
  0.5072173220413916  0.3971849222971358  0.3597818505000347
  0.4652831434137852  0.5720349117919312  0.3093051383484564
  0.5850563878849826  0.6845516661316680  0.5881016338839444
  0.4484206415660097  0.5935126388897984  0.6840178251086044
  0.3969767044165309  0.6728774287766299  0.6014500795140236
  0.3116548400560717  0.5032695220383374  0.5864480513911019
  0.3305658608470239  0.4806859617698507  0.3995920823098515
  0.3237176706082536  0.6029468873878088  0.4261388937956028
  0.4894892618999336  0.7137823235408121  0.4285099802687782
  0.6000966707478455  0.6615486025485069  0.4004432220826976
 
  0.00000000E+00  0.00000000E+00  0.00000000E+00
  0.00000000E+00  0.00000000E+00  0.00000000E+00
  0.00000000E+00  0.00000000E+00  0.00000000E+00
  0.00000000E+00  0.00000000E+00  0.00000000E+00
  0.00000000E+00  0.00000000E+00  0.00000000E+00
  0.00000000E+00  0.00000000E+00  0.00000000E+00
  0.00000000E+00  0.00000000E+00  0.00000000E+00
  0.00000000E+00  0.00000000E+00  0.00000000E+00
  0.00000000E+00  0.00000000E+00  0.00000000E+00
  0.00000000E+00  0.00000000E+00  0.00000000E+00
  0.00000000E+00  0.00000000E+00  0.00000000E+00
  0.00000000E+00  0.00000000E+00  0.00000000E+00
  0.00000000E+00  0.00000000E+00  0.00000000E+00
  0.00000000E+00  0.00000000E+00  0.00000000E+00
  0.00000000E+00  0.00000000E+00  0.00000000E+00
  0.00000000E+00  0.00000000E+00  0.00000000E+00
  0.00000000E+00  0.00000000E+00  0.00000000E+00
  0.00000000E+00  0.00000000E+00  0.00000000E+00
  0.00000000E+00  0.00000000E+00  0.00000000E+00
  0.00000000E+00  0.00000000E+00  0.00000000E+00
  0.00000000E+00  0.00000000E+00  0.00000000E+00
  0.00000000E+00  0.00000000E+00  0.00000000E+00
  0.00000000E+00  0.00000000E+00  0.00000000E+00
  0.00000000E+00  0.00000000E+00  0.00000000E+00
  0.00000000E+00  0.00000000E+00  0.00000000E+00
  0.00000000E+00  0.00000000E+00  0.00000000E+00
