SiGeH16                                 
   1.00000000000000     
    20.0000000000000000    0.0000000000000000    0.0000000000000000
     0.0000000000000000   20.0000000000000000    0.0000000000000000
     0.0000000000000000    0.0000000000000000   20.0000000000000000
   Si   Ge   H 
     4     6    16
Direct
  0.4746346087302612  0.5547587436704609  0.3842468047367827
  0.3694197713866921  0.5390682688695362  0.4346855995548174
  0.5411002891807407  0.4583601284787295  0.3951292750331764
  0.6151859797211875  0.5246266356325499  0.5659125787490312
  0.5310068704496628  0.6476366016796641  0.4358569541151016
  0.3818591486214856  0.5147657331303843  0.5518317624476414
  0.5591217749305872  0.4332912465505512  0.5113762427455607
  0.5490533536097448  0.6243135638147305  0.5549943297294149
  0.4503101385421558  0.4138470899203953  0.5647812257275246
  0.4393236212547673  0.6078559867380463  0.6075042885348251
  0.4149090880800371  0.3528777447564171  0.5315852653871983
  0.4598241954688934  0.3970825125011423  0.6402410326791189
  0.6024671373548409  0.3685728716453647  0.5176894350326182
  0.6824279296445863  0.5353279949872776  0.5345930004648942
  0.6256949615456219  0.5084776067669738  0.6382858797702922
  0.6070955132938269  0.4690498013076533  0.3613056873505695
  0.5076193514755396  0.3999831138745998  0.3621423973299838
  0.4647591301143707  0.5699856054502213  0.3113300566486924
  0.5853458497552164  0.6849268392973661  0.5884149796268315
  0.4476933915216495  0.5926045208206244  0.6834552626776336
  0.3969715982508144  0.6729843330159201  0.6013229782242435
  0.3117899655645989  0.5037483203660131  0.5846477521861974
  0.3332926963926285  0.4824309601371858  0.4013521484157792
  0.3278082616458936  0.6008144762439686  0.4263094688242192
  0.4887897932318740  0.7126437624572824  0.4280373671464029
  0.5994655802323169  0.6603655378869460  0.4008852268614451
 
  0.00000000E+00  0.00000000E+00  0.00000000E+00
  0.00000000E+00  0.00000000E+00  0.00000000E+00
  0.00000000E+00  0.00000000E+00  0.00000000E+00
  0.00000000E+00  0.00000000E+00  0.00000000E+00
  0.00000000E+00  0.00000000E+00  0.00000000E+00
  0.00000000E+00  0.00000000E+00  0.00000000E+00
  0.00000000E+00  0.00000000E+00  0.00000000E+00
  0.00000000E+00  0.00000000E+00  0.00000000E+00
  0.00000000E+00  0.00000000E+00  0.00000000E+00
  0.00000000E+00  0.00000000E+00  0.00000000E+00
  0.00000000E+00  0.00000000E+00  0.00000000E+00
  0.00000000E+00  0.00000000E+00  0.00000000E+00
  0.00000000E+00  0.00000000E+00  0.00000000E+00
  0.00000000E+00  0.00000000E+00  0.00000000E+00
  0.00000000E+00  0.00000000E+00  0.00000000E+00
  0.00000000E+00  0.00000000E+00  0.00000000E+00
  0.00000000E+00  0.00000000E+00  0.00000000E+00
  0.00000000E+00  0.00000000E+00  0.00000000E+00
  0.00000000E+00  0.00000000E+00  0.00000000E+00
  0.00000000E+00  0.00000000E+00  0.00000000E+00
  0.00000000E+00  0.00000000E+00  0.00000000E+00
  0.00000000E+00  0.00000000E+00  0.00000000E+00
  0.00000000E+00  0.00000000E+00  0.00000000E+00
  0.00000000E+00  0.00000000E+00  0.00000000E+00
  0.00000000E+00  0.00000000E+00  0.00000000E+00
  0.00000000E+00  0.00000000E+00  0.00000000E+00
