SiGeH16                                 
   1.00000000000000     
    20.0000000000000000    0.0000000000000000    0.0000000000000000
     0.0000000000000000   20.0000000000000000    0.0000000000000000
     0.0000000000000000    0.0000000000000000   20.0000000000000000
   Si   Ge   H 
     3     7    16
Direct
  0.4750846120817397  0.5568533690367153  0.3820164688350638
  0.6148106414510225  0.5244885196507144  0.5663891446157983
  0.4505631790146613  0.4141156449218916  0.5652945392817113
  0.3684916634300966  0.5390791094225051  0.4345231632897790
  0.5416206561581454  0.4577187124593582  0.3946327804489949
  0.5313321386562916  0.6485087188197988  0.4356031695515203
  0.3832774756621637  0.5128758616288828  0.5536085440699345
  0.5575700822625012  0.4327908131968522  0.5138688710606940
  0.5489091150886548  0.6241772395531192  0.5547077636613056
  0.4396448235592392  0.6073565325450498  0.6078624105205723
  0.4165560342814362  0.3560673470101438  0.5324060490706435
  0.4595282645510904  0.3976893688377313  0.6378598404232292
  0.6009757979840387  0.3681505627896392  0.5200105065638287
  0.6817126475706746  0.5342374874748038  0.5341835627110137
  0.6259574113034514  0.5095296563012262  0.6389679767947897
  0.6110595428823608  0.4671146805093050  0.3606101325268083
  0.5070068897039874  0.3971896831636273  0.3599109407637676
  0.4652934214884031  0.5721368334919380  0.3091312936084765
  0.5851486408215953  0.6847611090165331  0.5881353847799605
  0.4485604691026926  0.5933213037583118  0.6839821310263517
  0.3964197112302001  0.6717668429467313  0.6008936202990944
  0.3131830975002447  0.5020061726345524  0.5863166685193957
  0.3307388650987074  0.4805340123665142  0.3996357643537684
  0.3239359300505495  0.6025743360738247  0.4274180398516896
  0.4894628994014107  0.7138087886150088  0.4285111054324508
  0.6001259896646343  0.6615472937752265  0.4014371279393552
 
  0.00000000E+00  0.00000000E+00  0.00000000E+00
  0.00000000E+00  0.00000000E+00  0.00000000E+00
  0.00000000E+00  0.00000000E+00  0.00000000E+00
  0.00000000E+00  0.00000000E+00  0.00000000E+00
  0.00000000E+00  0.00000000E+00  0.00000000E+00
  0.00000000E+00  0.00000000E+00  0.00000000E+00
  0.00000000E+00  0.00000000E+00  0.00000000E+00
  0.00000000E+00  0.00000000E+00  0.00000000E+00
  0.00000000E+00  0.00000000E+00  0.00000000E+00
  0.00000000E+00  0.00000000E+00  0.00000000E+00
  0.00000000E+00  0.00000000E+00  0.00000000E+00
  0.00000000E+00  0.00000000E+00  0.00000000E+00
  0.00000000E+00  0.00000000E+00  0.00000000E+00
  0.00000000E+00  0.00000000E+00  0.00000000E+00
  0.00000000E+00  0.00000000E+00  0.00000000E+00
  0.00000000E+00  0.00000000E+00  0.00000000E+00
  0.00000000E+00  0.00000000E+00  0.00000000E+00
  0.00000000E+00  0.00000000E+00  0.00000000E+00
  0.00000000E+00  0.00000000E+00  0.00000000E+00
  0.00000000E+00  0.00000000E+00  0.00000000E+00
  0.00000000E+00  0.00000000E+00  0.00000000E+00
  0.00000000E+00  0.00000000E+00  0.00000000E+00
  0.00000000E+00  0.00000000E+00  0.00000000E+00
  0.00000000E+00  0.00000000E+00  0.00000000E+00
  0.00000000E+00  0.00000000E+00  0.00000000E+00
  0.00000000E+00  0.00000000E+00  0.00000000E+00
