SiGeH16                                 
   1.00000000000000     
    20.0000000000000000    0.0000000000000000    0.0000000000000000
     0.0000000000000000   20.0000000000000000    0.0000000000000000
     0.0000000000000000    0.0000000000000000   20.0000000000000000
   Si   Ge   H 
     1     9    16
Direct
  0.4751532124910014  0.5567454401431391  0.3823140035348871
  0.3681532207571436  0.5394650507110583  0.4342776485338220
  0.5418407478858853  0.4573997744641787  0.3937760410512965
  0.5311066814985850  0.6489628621127039  0.4353618459333788
  0.3819083343782737  0.5143247808612301  0.5536517921353123
  0.5590340532957043  0.4306261882635596  0.5123493870886620
  0.5480878117222190  0.6259864415801388  0.5547578069850800
  0.6161457617991530  0.5245996857368311  0.5667840913934086
  0.4499501886478399  0.4129234645923248  0.5656735621291347
  0.4390041776687923  0.6083080822259390  0.6080919764409103
  0.4136569031112174  0.3525179611700224  0.5324216277364968
  0.4593933324909045  0.3957114934540940  0.6410806688509894
  0.6024465671805146  0.3659640852238581  0.5186956737194777
  0.6860877217283985  0.5355776035968418  0.5342389900125539
  0.6278277189932879  0.5088938078312495  0.6422051321634044
  0.6109331911695151  0.4672152222699495  0.3591692846296652
  0.5069734414400102  0.3973544241164504  0.3584684912053717
  0.4653726685386914  0.5720151802891849  0.3094260527330519
  0.5844780134804068  0.6864749225377338  0.5882733917347451
  0.4483041509617038  0.5937021051460505  0.6840633538845964
  0.3957169270411498  0.6728085607714291  0.6019663852006900
  0.3118451759767140  0.5032804534398068  0.5864467463156089
  0.3305636697918928  0.4807028037952961  0.3996086275701671
  0.3237180395721779  0.6029243839839111  0.4261466246775782
  0.4892332635069039  0.7141438405343052  0.4272566941189169
  0.6000350248719002  0.6617713811487249  0.4004111002208054
 
  0.00000000E+00  0.00000000E+00  0.00000000E+00
  0.00000000E+00  0.00000000E+00  0.00000000E+00
  0.00000000E+00  0.00000000E+00  0.00000000E+00
  0.00000000E+00  0.00000000E+00  0.00000000E+00
  0.00000000E+00  0.00000000E+00  0.00000000E+00
  0.00000000E+00  0.00000000E+00  0.00000000E+00
  0.00000000E+00  0.00000000E+00  0.00000000E+00
  0.00000000E+00  0.00000000E+00  0.00000000E+00
  0.00000000E+00  0.00000000E+00  0.00000000E+00
  0.00000000E+00  0.00000000E+00  0.00000000E+00
  0.00000000E+00  0.00000000E+00  0.00000000E+00
  0.00000000E+00  0.00000000E+00  0.00000000E+00
  0.00000000E+00  0.00000000E+00  0.00000000E+00
  0.00000000E+00  0.00000000E+00  0.00000000E+00
  0.00000000E+00  0.00000000E+00  0.00000000E+00
  0.00000000E+00  0.00000000E+00  0.00000000E+00
  0.00000000E+00  0.00000000E+00  0.00000000E+00
  0.00000000E+00  0.00000000E+00  0.00000000E+00
  0.00000000E+00  0.00000000E+00  0.00000000E+00
  0.00000000E+00  0.00000000E+00  0.00000000E+00
  0.00000000E+00  0.00000000E+00  0.00000000E+00
  0.00000000E+00  0.00000000E+00  0.00000000E+00
  0.00000000E+00  0.00000000E+00  0.00000000E+00
  0.00000000E+00  0.00000000E+00  0.00000000E+00
  0.00000000E+00  0.00000000E+00  0.00000000E+00
  0.00000000E+00  0.00000000E+00  0.00000000E+00
