SiGeH16                                 
   1.00000000000000     
    20.0000000000000000    0.0000000000000000    0.0000000000000000
     0.0000000000000000   20.0000000000000000    0.0000000000000000
     0.0000000000000000    0.0000000000000000   20.0000000000000000
   Si   Ge   H 
     3     7    16
Direct
  0.3671793243837468  0.5389037694147577  0.4352037630233400
  0.5424285619841415  0.4565011150451053  0.3948191087879508
  0.6151164134848636  0.5246528724517138  0.5657104089058730
  0.4744819095819782  0.5549178590525068  0.3832887198720071
  0.5320050280591565  0.6495341698145001  0.4363331877518349
  0.3814883277372573  0.5147179238762699  0.5520094348710902
  0.5593726164366442  0.4329468698149262  0.5114114255036998
  0.5492180270871018  0.6245489621926928  0.5551698671505125
  0.4503157344241189  0.4139752880230194  0.5645207739387449
  0.4393238441727285  0.6078430360055154  0.6072284815236395
  0.4148778960466553  0.3529355780609146  0.5315102739502227
  0.4598507591662542  0.3972545365331394  0.6399992686810588
  0.6025881396017532  0.3683003942421991  0.5190377400495925
  0.6824156756067469  0.5353475964643966  0.5345253121504183
  0.6255408551204714  0.5085445777934047  0.6380963735910865
  0.6084122013533663  0.4672509091406344  0.3610646845499114
  0.5088341911570565  0.3982375162546173  0.3618776691581200
  0.4643597336032395  0.5709819842652794  0.3074965947475419
  0.5854409833380601  0.6845877830813717  0.5896628069024165
  0.4477589432282644  0.5925686663789654  0.6831688647790821
  0.3969495840804311  0.6729574121732473  0.6012400855844822
  0.3120241765612395  0.5034586767268533  0.5859873357928109
  0.3312027519232029  0.4822307820803409  0.4018890184367447
  0.3256578045753564  0.6006670499038483  0.4268808131685859
  0.4896535956989390  0.7144317468416854  0.4284596546444941
  0.6004729215872195  0.6621029243680991  0.4013253324847363
 
  0.00000000E+00  0.00000000E+00  0.00000000E+00
  0.00000000E+00  0.00000000E+00  0.00000000E+00
  0.00000000E+00  0.00000000E+00  0.00000000E+00
  0.00000000E+00  0.00000000E+00  0.00000000E+00
  0.00000000E+00  0.00000000E+00  0.00000000E+00
  0.00000000E+00  0.00000000E+00  0.00000000E+00
  0.00000000E+00  0.00000000E+00  0.00000000E+00
  0.00000000E+00  0.00000000E+00  0.00000000E+00
  0.00000000E+00  0.00000000E+00  0.00000000E+00
  0.00000000E+00  0.00000000E+00  0.00000000E+00
  0.00000000E+00  0.00000000E+00  0.00000000E+00
  0.00000000E+00  0.00000000E+00  0.00000000E+00
  0.00000000E+00  0.00000000E+00  0.00000000E+00
  0.00000000E+00  0.00000000E+00  0.00000000E+00
  0.00000000E+00  0.00000000E+00  0.00000000E+00
  0.00000000E+00  0.00000000E+00  0.00000000E+00
  0.00000000E+00  0.00000000E+00  0.00000000E+00
  0.00000000E+00  0.00000000E+00  0.00000000E+00
  0.00000000E+00  0.00000000E+00  0.00000000E+00
  0.00000000E+00  0.00000000E+00  0.00000000E+00
  0.00000000E+00  0.00000000E+00  0.00000000E+00
  0.00000000E+00  0.00000000E+00  0.00000000E+00
  0.00000000E+00  0.00000000E+00  0.00000000E+00
  0.00000000E+00  0.00000000E+00  0.00000000E+00
  0.00000000E+00  0.00000000E+00  0.00000000E+00
  0.00000000E+00  0.00000000E+00  0.00000000E+00
