SiGeH16                                 
   1.00000000000000     
    20.0000000000000000    0.0000000000000000    0.0000000000000000
     0.0000000000000000   20.0000000000000000    0.0000000000000000
     0.0000000000000000    0.0000000000000000   20.0000000000000000
   Si   Ge   H 
     3     7    16
Direct
  0.4752508761553642  0.5565294935820262  0.3831697266738843
  0.3832526934117553  0.5144932437639227  0.5530687150917970
  0.5581827692238122  0.4318303736825868  0.5122742167842773
  0.3688203661050338  0.5392294647207621  0.4363158156301168
  0.5420358071258704  0.4573902020652909  0.3959226949286219
  0.5311827771009803  0.6491942757353257  0.4352166502180026
  0.5476519532492645  0.6252240613270317  0.5544293749097093
  0.6149507716282443  0.5232297510803861  0.5656288252362600
  0.4509347386446549  0.4157610353950005  0.5641535073782293
  0.4382500572414756  0.6067281426461975  0.6068391154042487
  0.4146186446655165  0.3552054243371643  0.5311525601698648
  0.4602268707199428  0.3982566763661737  0.6394917872413473
  0.5989482950424616  0.3691645403526138  0.5188392402237625
  0.6849005798356913  0.5344341741441170  0.5332531940357796
  0.6265176653416233  0.5077642497982779  0.6410864072816196
  0.6110111139944934  0.4671674892241739  0.3610587227891173
  0.5070376375100878  0.3974328350090559  0.3604936773722827
  0.4649179550278504  0.5706938909472967  0.3102022251855701
  0.5840147407848661  0.6851586478091463  0.5889547996723010
  0.4478101282324189  0.5922039111449990  0.6827642083456027
  0.3951858783790883  0.6713498311434520  0.6008246385290406
  0.3162545983817964  0.5027529247689273  0.5847690244221013
  0.3313184527506223  0.4804523690652402  0.4014735411697998
  0.3243313490604294  0.6026202725104000  0.4279069083579543
  0.4891769859779345  0.7143005461707190  0.4272589409405967
  0.6001862944087151  0.6618321732097030  0.4003684820081096
 
  0.00000000E+00  0.00000000E+00  0.00000000E+00
  0.00000000E+00  0.00000000E+00  0.00000000E+00
  0.00000000E+00  0.00000000E+00  0.00000000E+00
  0.00000000E+00  0.00000000E+00  0.00000000E+00
  0.00000000E+00  0.00000000E+00  0.00000000E+00
  0.00000000E+00  0.00000000E+00  0.00000000E+00
  0.00000000E+00  0.00000000E+00  0.00000000E+00
  0.00000000E+00  0.00000000E+00  0.00000000E+00
  0.00000000E+00  0.00000000E+00  0.00000000E+00
  0.00000000E+00  0.00000000E+00  0.00000000E+00
  0.00000000E+00  0.00000000E+00  0.00000000E+00
  0.00000000E+00  0.00000000E+00  0.00000000E+00
  0.00000000E+00  0.00000000E+00  0.00000000E+00
  0.00000000E+00  0.00000000E+00  0.00000000E+00
  0.00000000E+00  0.00000000E+00  0.00000000E+00
  0.00000000E+00  0.00000000E+00  0.00000000E+00
  0.00000000E+00  0.00000000E+00  0.00000000E+00
  0.00000000E+00  0.00000000E+00  0.00000000E+00
  0.00000000E+00  0.00000000E+00  0.00000000E+00
  0.00000000E+00  0.00000000E+00  0.00000000E+00
  0.00000000E+00  0.00000000E+00  0.00000000E+00
  0.00000000E+00  0.00000000E+00  0.00000000E+00
  0.00000000E+00  0.00000000E+00  0.00000000E+00
  0.00000000E+00  0.00000000E+00  0.00000000E+00
  0.00000000E+00  0.00000000E+00  0.00000000E+00
  0.00000000E+00  0.00000000E+00  0.00000000E+00
