SiGeH16                                 
   1.00000000000000     
    20.0000000000000000    0.0000000000000000    0.0000000000000000
     0.0000000000000000   20.0000000000000000    0.0000000000000000
     0.0000000000000000    0.0000000000000000   20.0000000000000000
   Si   Ge   H 
     3     7    16
Direct
  0.4736801213686945  0.5562558777537276  0.3841937652888205
  0.3697928223595426  0.5390229161441624  0.4367872218191451
  0.3832318689725227  0.5149321849306006  0.5512156705662576
  0.5415159387437072  0.4574900681959235  0.3939238518818442
  0.5307987462893848  0.6487834427361250  0.4354495601834500
  0.5588996315900872  0.4308402213387410  0.5124271240139961
  0.5479787422954274  0.6257426041594130  0.5547347150244519
  0.6164347180725827  0.5246140892697966  0.5667843225409683
  0.4490116299168889  0.4152247525186112  0.5647297720501214
  0.4382986926182824  0.6065153968407060  0.6062674732712665
  0.4129575355277950  0.3544823054310271  0.5318704359689690
  0.4577794993848414  0.3985778371711319  0.6403048631335935
  0.6013993142158611  0.3656379326845709  0.5193119945420364
  0.6864058409047473  0.5355695108878251  0.5343468489352290
  0.6280184206756019  0.5089057537526358  0.6421977538962977
  0.6102058306846416  0.4682380569023366  0.3588276985960519
  0.5068158455016487  0.3973774411240072  0.3585453583335720
  0.4624850465247050  0.5713997066952032  0.3115233126445105
  0.5834150859396345  0.6863990659355110  0.5889406090373370
  0.4469894815220954  0.5912542968437435  0.6821437661890926
  0.3952170638377126  0.6711803821044811  0.6006389860906012
  0.3157831594362719  0.5043741380286093  0.5824352100757650
  0.3339919204752491  0.4822242870435574  0.4033552858735874
  0.3273665469792846  0.6003817097847630  0.4289919636519102
  0.4890832764740054  0.7140730891264155  0.4273149282396531
  0.5994132196887634  0.6609029325963789  0.3996545081514688
 
  0.00000000E+00  0.00000000E+00  0.00000000E+00
  0.00000000E+00  0.00000000E+00  0.00000000E+00
  0.00000000E+00  0.00000000E+00  0.00000000E+00
  0.00000000E+00  0.00000000E+00  0.00000000E+00
  0.00000000E+00  0.00000000E+00  0.00000000E+00
  0.00000000E+00  0.00000000E+00  0.00000000E+00
  0.00000000E+00  0.00000000E+00  0.00000000E+00
  0.00000000E+00  0.00000000E+00  0.00000000E+00
  0.00000000E+00  0.00000000E+00  0.00000000E+00
  0.00000000E+00  0.00000000E+00  0.00000000E+00
  0.00000000E+00  0.00000000E+00  0.00000000E+00
  0.00000000E+00  0.00000000E+00  0.00000000E+00
  0.00000000E+00  0.00000000E+00  0.00000000E+00
  0.00000000E+00  0.00000000E+00  0.00000000E+00
  0.00000000E+00  0.00000000E+00  0.00000000E+00
  0.00000000E+00  0.00000000E+00  0.00000000E+00
  0.00000000E+00  0.00000000E+00  0.00000000E+00
  0.00000000E+00  0.00000000E+00  0.00000000E+00
  0.00000000E+00  0.00000000E+00  0.00000000E+00
  0.00000000E+00  0.00000000E+00  0.00000000E+00
  0.00000000E+00  0.00000000E+00  0.00000000E+00
  0.00000000E+00  0.00000000E+00  0.00000000E+00
  0.00000000E+00  0.00000000E+00  0.00000000E+00
  0.00000000E+00  0.00000000E+00  0.00000000E+00
  0.00000000E+00  0.00000000E+00  0.00000000E+00
  0.00000000E+00  0.00000000E+00  0.00000000E+00
