SiGeH16                                 
   1.00000000000000     
    20.0000000000000000    0.0000000000000000    0.0000000000000000
     0.0000000000000000   20.0000000000000000    0.0000000000000000
     0.0000000000000000    0.0000000000000000   20.0000000000000000
   Si   Ge   H 
     3     7    16
Direct
  0.4735517444467207  0.5563895537119121  0.3835383969425322
  0.3689720592154032  0.5394490597884115  0.4346065832454377
  0.6154303418588623  0.5246446324294132  0.5663968988602018
  0.5414472199678588  0.4578430659481228  0.3944561503306063
  0.5307785307737330  0.6482373767602655  0.4357827341013538
  0.3820762669723755  0.5147719545233884  0.5516424827122545
  0.5597089945114581  0.4323921473159962  0.5131813194755181
  0.5489650391080499  0.6241175668354161  0.5547967385529040
  0.4502082861062885  0.4136358965104039  0.5653194019633213
  0.4393319085509981  0.6078366451005411  0.6074875554392510
  0.4149171807725089  0.3527890321343166  0.5318125621554886
  0.4586409388260375  0.3968916974417065  0.6409343692236460
  0.6030547438930725  0.3676740674161502  0.5194243669232782
  0.6825032897479802  0.5352618841184242  0.5347768040748989
  0.6262956617479994  0.5095025947223739  0.6389796172716182
  0.6100521005465972  0.4684373518740568  0.3591143326930468
  0.5070486464761836  0.3970965584575343  0.3598879988046743
  0.4636483134917639  0.5716444934730008  0.3106837345349768
  0.5852918710351154  0.6846876794615512  0.5882309761403041
  0.4476862128139935  0.5926154718770897  0.6834322742229161
  0.3969935272036161  0.6729516291798084  0.6013366285795324
  0.3120205398100833  0.5037228282490718  0.5844509692854091
  0.3331809178458835  0.4826569862936116  0.4012662409021389
  0.3265615662934813  0.6007666465059995  0.4269122551873756
  0.4893158502882356  0.7137972490945724  0.4286373179048876
  0.5992882476956937  0.6605859307768656  0.4008282904724247
 
  0.00000000E+00  0.00000000E+00  0.00000000E+00
  0.00000000E+00  0.00000000E+00  0.00000000E+00
  0.00000000E+00  0.00000000E+00  0.00000000E+00
  0.00000000E+00  0.00000000E+00  0.00000000E+00
  0.00000000E+00  0.00000000E+00  0.00000000E+00
  0.00000000E+00  0.00000000E+00  0.00000000E+00
  0.00000000E+00  0.00000000E+00  0.00000000E+00
  0.00000000E+00  0.00000000E+00  0.00000000E+00
  0.00000000E+00  0.00000000E+00  0.00000000E+00
  0.00000000E+00  0.00000000E+00  0.00000000E+00
  0.00000000E+00  0.00000000E+00  0.00000000E+00
  0.00000000E+00  0.00000000E+00  0.00000000E+00
  0.00000000E+00  0.00000000E+00  0.00000000E+00
  0.00000000E+00  0.00000000E+00  0.00000000E+00
  0.00000000E+00  0.00000000E+00  0.00000000E+00
  0.00000000E+00  0.00000000E+00  0.00000000E+00
  0.00000000E+00  0.00000000E+00  0.00000000E+00
  0.00000000E+00  0.00000000E+00  0.00000000E+00
  0.00000000E+00  0.00000000E+00  0.00000000E+00
  0.00000000E+00  0.00000000E+00  0.00000000E+00
  0.00000000E+00  0.00000000E+00  0.00000000E+00
  0.00000000E+00  0.00000000E+00  0.00000000E+00
  0.00000000E+00  0.00000000E+00  0.00000000E+00
  0.00000000E+00  0.00000000E+00  0.00000000E+00
  0.00000000E+00  0.00000000E+00  0.00000000E+00
  0.00000000E+00  0.00000000E+00  0.00000000E+00
