SiGeH16                                 
   1.00000000000000     
    20.0000000000000000    0.0000000000000000    0.0000000000000000
     0.0000000000000000   20.0000000000000000    0.0000000000000000
     0.0000000000000000    0.0000000000000000   20.0000000000000000
   Si   Ge   H 
     4     6    16
Direct
  0.4747598409340199  0.5546421174773783  0.3849150188048114
  0.3702887827971679  0.5386449969558669  0.4368803302059519
  0.5411613043497638  0.4580471784840938  0.3946223227188739
  0.3830174749737978  0.5149202543894305  0.5513765078112414
  0.5310144653777513  0.6481965483373315  0.4355213781339131
  0.5583361728803098  0.4317357651410916  0.5106119727152958
  0.5480760705983627  0.6259437308305422  0.5549086023514249
  0.6162502902084270  0.5246038718363621  0.5662903566082846
  0.4491009236585484  0.4154218313238545  0.5642222677667803
  0.4382752558905310  0.6065349412534502  0.6063011262014086
  0.4129184129816110  0.3545695879357851  0.5316855888748506
  0.4589357599117960  0.3987318517604663  0.6396474067705142
  0.6008206763323827  0.3665235909077893  0.5175182251629806
  0.6863798135636969  0.5356182910122200  0.5341510234532905
  0.6274626934611973  0.5078266830826266  0.6415381647936940
  0.6072544535533453  0.4688836657196092  0.3610164542732264
  0.5073744709685428  0.4003172232770211  0.3608172998932133
  0.4635829660616082  0.5696944652051599  0.3121520263091284
  0.5834562005989810  0.6866283738036074  0.5891270975394320
  0.4469379382801435  0.5912322933927214  0.6821998875940309
  0.3951627517405285  0.6712176534699523  0.6006593758299488
  0.3155403887324297  0.5044283223507691  0.5825876907082517
  0.3341332023227110  0.4820525527547872  0.4034847585876236
  0.3286278594687388  0.6004194576616513  0.4283614271178848
  0.4885481038168180  0.7129034740043423  0.4266427846604373
  0.5995537265367901  0.6606612776320944  0.3996779051134970
 
  0.00000000E+00  0.00000000E+00  0.00000000E+00
  0.00000000E+00  0.00000000E+00  0.00000000E+00
  0.00000000E+00  0.00000000E+00  0.00000000E+00
  0.00000000E+00  0.00000000E+00  0.00000000E+00
  0.00000000E+00  0.00000000E+00  0.00000000E+00
  0.00000000E+00  0.00000000E+00  0.00000000E+00
  0.00000000E+00  0.00000000E+00  0.00000000E+00
  0.00000000E+00  0.00000000E+00  0.00000000E+00
  0.00000000E+00  0.00000000E+00  0.00000000E+00
  0.00000000E+00  0.00000000E+00  0.00000000E+00
  0.00000000E+00  0.00000000E+00  0.00000000E+00
  0.00000000E+00  0.00000000E+00  0.00000000E+00
  0.00000000E+00  0.00000000E+00  0.00000000E+00
  0.00000000E+00  0.00000000E+00  0.00000000E+00
  0.00000000E+00  0.00000000E+00  0.00000000E+00
  0.00000000E+00  0.00000000E+00  0.00000000E+00
  0.00000000E+00  0.00000000E+00  0.00000000E+00
  0.00000000E+00  0.00000000E+00  0.00000000E+00
  0.00000000E+00  0.00000000E+00  0.00000000E+00
  0.00000000E+00  0.00000000E+00  0.00000000E+00
  0.00000000E+00  0.00000000E+00  0.00000000E+00
  0.00000000E+00  0.00000000E+00  0.00000000E+00
  0.00000000E+00  0.00000000E+00  0.00000000E+00
  0.00000000E+00  0.00000000E+00  0.00000000E+00
  0.00000000E+00  0.00000000E+00  0.00000000E+00
  0.00000000E+00  0.00000000E+00  0.00000000E+00
