SiGeH16                                 
   1.00000000000000     
    20.0000000000000000    0.0000000000000000    0.0000000000000000
     0.0000000000000000   20.0000000000000000    0.0000000000000000
     0.0000000000000000    0.0000000000000000   20.0000000000000000
   Si   Ge   H 
     4     6    16
Direct
  0.4747782211328441  0.5547109258668517  0.3848433605466082
  0.3693260933513166  0.5389010082348480  0.4346267718937629
  0.5408747297911254  0.4578366645745522  0.3946237403156224
  0.5477963621698777  0.6254667786731442  0.5545744372988354
  0.5308437918557949  0.6472479668326078  0.4376997527240541
  0.3824876808983962  0.5148916287605688  0.5516501893119783
  0.5584012507069830  0.4317657904145747  0.5106313349413384
  0.6144248009441775  0.5261387072176005  0.5658670735603859
  0.4498399557874172  0.4131913308123526  0.5646394550248767
  0.4407820420091022  0.6081889466815339  0.6063613098792635
  0.4135314350114874  0.3524344486115452  0.5320384033273141
  0.4597278502899022  0.3968822873789206  0.6401489019423128
  0.6026645148445758  0.3677937611126644  0.5176025864646604
  0.6845673735126971  0.5369989964606234  0.5337001329786564
  0.6258916766313639  0.5092609287903396  0.6410475071795191
  0.6070399230609524  0.4688664585295256  0.3612404919467881
  0.5072996780116514  0.4000389539643595  0.3606793477281977
  0.4655158827076915  0.5709996757045498  0.3121189107917777
  0.5827670523836558  0.6836620765478436  0.5866818782173107
  0.4492520632826196  0.5927156476436134  0.6822386343387721
  0.3974369732869229  0.6726989931306998  0.6006736685651820
  0.3126867194353866  0.5048237877628103  0.5852162602180740
  0.3331844182005591  0.4823146778967710  0.4012822604582865
  0.3278760015649662  0.6007653348640697  0.4263368275111840
  0.4886050666824228  0.7120825635559364  0.4286094771809947
  0.5993684424461034  0.6597216599770973  0.4027842856542417
 
  0.00000000E+00  0.00000000E+00  0.00000000E+00
  0.00000000E+00  0.00000000E+00  0.00000000E+00
  0.00000000E+00  0.00000000E+00  0.00000000E+00
  0.00000000E+00  0.00000000E+00  0.00000000E+00
  0.00000000E+00  0.00000000E+00  0.00000000E+00
  0.00000000E+00  0.00000000E+00  0.00000000E+00
  0.00000000E+00  0.00000000E+00  0.00000000E+00
  0.00000000E+00  0.00000000E+00  0.00000000E+00
  0.00000000E+00  0.00000000E+00  0.00000000E+00
  0.00000000E+00  0.00000000E+00  0.00000000E+00
  0.00000000E+00  0.00000000E+00  0.00000000E+00
  0.00000000E+00  0.00000000E+00  0.00000000E+00
  0.00000000E+00  0.00000000E+00  0.00000000E+00
  0.00000000E+00  0.00000000E+00  0.00000000E+00
  0.00000000E+00  0.00000000E+00  0.00000000E+00
  0.00000000E+00  0.00000000E+00  0.00000000E+00
  0.00000000E+00  0.00000000E+00  0.00000000E+00
  0.00000000E+00  0.00000000E+00  0.00000000E+00
  0.00000000E+00  0.00000000E+00  0.00000000E+00
  0.00000000E+00  0.00000000E+00  0.00000000E+00
  0.00000000E+00  0.00000000E+00  0.00000000E+00
  0.00000000E+00  0.00000000E+00  0.00000000E+00
  0.00000000E+00  0.00000000E+00  0.00000000E+00
  0.00000000E+00  0.00000000E+00  0.00000000E+00
  0.00000000E+00  0.00000000E+00  0.00000000E+00
  0.00000000E+00  0.00000000E+00  0.00000000E+00
