SiGeH16                                 
   1.00000000000000     
    20.0000000000000000    0.0000000000000000    0.0000000000000000
     0.0000000000000000   20.0000000000000000    0.0000000000000000
     0.0000000000000000    0.0000000000000000   20.0000000000000000
   Si   Ge   H 
     2     8    16
Direct
  0.3672365246459890  0.5388993613051838  0.4352376154445068
  0.5422770237662249  0.4561783157023385  0.3944188083830440
  0.4745728980511004  0.5549308441625058  0.3834977124427965
  0.5317748928721002  0.6500082608320739  0.4360898642739315
  0.3817034893607030  0.5147163747069925  0.5519922711585110
  0.5588301688786927  0.4310144212009277  0.5106876817484292
  0.5484622201772993  0.6265429716851898  0.5552359868115389
  0.6158762271967646  0.5246063547682382  0.5660630868665280
  0.4499476032944401  0.4135281898871881  0.5644416913299892
  0.4389003238234608  0.6082386714641856  0.6073385351037857
  0.4136442182012843  0.3526964587758101  0.5319981795957389
  0.4597598655232460  0.3970689993861711  0.6399172198124816
  0.6021853444161138  0.3664731207002632  0.5183743429573795
  0.6860406252285642  0.5356301633313052  0.5340185588007813
  0.6271632221323102  0.5079426897540031  0.6413222075118554
  0.6083713591993458  0.4670503128862151  0.3609774890778255
  0.5085870496245377  0.3984544528094247  0.3605580341132253
  0.4644737037007758  0.5709498257412591  0.3077037312896067
  0.5848337829161920  0.6864732070769932  0.5897972217261227
  0.4476664236573882  0.5927541623588795  0.6831837907948000
  0.3957039082525924  0.6728464642310001  0.6017416582555839
  0.3122512599651230  0.5034742372506784  0.5859693208024908
  0.3312362995012208  0.4822627723722022  0.4019177570662364
  0.3256997531460755  0.6006244335326727  0.4268997862044728
  0.4893935080825500  0.7147427689095878  0.4272097183865924
  0.6003783043858846  0.6622921651687221  0.4003247300417362
 
  0.00000000E+00  0.00000000E+00  0.00000000E+00
  0.00000000E+00  0.00000000E+00  0.00000000E+00
  0.00000000E+00  0.00000000E+00  0.00000000E+00
  0.00000000E+00  0.00000000E+00  0.00000000E+00
  0.00000000E+00  0.00000000E+00  0.00000000E+00
  0.00000000E+00  0.00000000E+00  0.00000000E+00
  0.00000000E+00  0.00000000E+00  0.00000000E+00
  0.00000000E+00  0.00000000E+00  0.00000000E+00
  0.00000000E+00  0.00000000E+00  0.00000000E+00
  0.00000000E+00  0.00000000E+00  0.00000000E+00
  0.00000000E+00  0.00000000E+00  0.00000000E+00
  0.00000000E+00  0.00000000E+00  0.00000000E+00
  0.00000000E+00  0.00000000E+00  0.00000000E+00
  0.00000000E+00  0.00000000E+00  0.00000000E+00
  0.00000000E+00  0.00000000E+00  0.00000000E+00
  0.00000000E+00  0.00000000E+00  0.00000000E+00
  0.00000000E+00  0.00000000E+00  0.00000000E+00
  0.00000000E+00  0.00000000E+00  0.00000000E+00
  0.00000000E+00  0.00000000E+00  0.00000000E+00
  0.00000000E+00  0.00000000E+00  0.00000000E+00
  0.00000000E+00  0.00000000E+00  0.00000000E+00
  0.00000000E+00  0.00000000E+00  0.00000000E+00
  0.00000000E+00  0.00000000E+00  0.00000000E+00
  0.00000000E+00  0.00000000E+00  0.00000000E+00
  0.00000000E+00  0.00000000E+00  0.00000000E+00
  0.00000000E+00  0.00000000E+00  0.00000000E+00
