SiGeH16                                 
   1.00000000000000     
    20.0000000000000000    0.0000000000000000    0.0000000000000000
     0.0000000000000000   20.0000000000000000    0.0000000000000000
     0.0000000000000000    0.0000000000000000   20.0000000000000000
   Si   Ge   H 
     3     7    16
Direct
  0.4751071071788918  0.5566891544733703  0.3825564061479766
  0.3826484416388125  0.5144435871903106  0.5533063662365238
  0.6154703649025822  0.5246770682464400  0.5662637980594410
  0.3689386229584924  0.5390603246912347  0.4363384655064838
  0.5422156088030392  0.4577638401136550  0.3941064722557788
  0.5315234650600406  0.6485377300987776  0.4355170853531430
  0.5592551486206283  0.4328978505100640  0.5131249341215560
  0.5485647475594911  0.6236350753767735  0.5545268980363877
  0.4495042645759195  0.4154019904065474  0.5653067230252670
  0.4388178311486989  0.6061714513880097  0.6067260290520504
  0.4142152910209752  0.3546918306816421  0.5315660516156341
  0.4587840016592333  0.3977117494821995  0.6406025899517340
  0.6016302448679198  0.3675739995677787  0.5199110966411258
  0.6825503206111978  0.5352752208953242  0.5347303960613244
  0.6261912561721610  0.5095362541219045  0.6388041004456959
  0.6111801539171541  0.4673611383901319  0.3591735494897725
  0.5072412889238224  0.3971979304299951  0.3597836736019187
  0.4640994129340124  0.5718543187629105  0.3098376743618332
  0.5838597454145614  0.6844289753870855  0.5886885309274068
  0.4479035936426700  0.5920277985005129  0.6827918371203309
  0.3964856131314883  0.6712575824369054  0.6002999745838637
  0.3152645321799926  0.5038509350922741  0.5847124100970302
  0.3312717941375494  0.4804130925213494  0.4014378328289451
  0.3244383111261026  0.6025046745553794  0.4279357605470247
  0.4895132055647484  0.7137719696784784  0.4285072145569042
  0.6002956322498086  0.6616644570009502  0.4013611293748444
 
  0.00000000E+00  0.00000000E+00  0.00000000E+00
  0.00000000E+00  0.00000000E+00  0.00000000E+00
  0.00000000E+00  0.00000000E+00  0.00000000E+00
  0.00000000E+00  0.00000000E+00  0.00000000E+00
  0.00000000E+00  0.00000000E+00  0.00000000E+00
  0.00000000E+00  0.00000000E+00  0.00000000E+00
  0.00000000E+00  0.00000000E+00  0.00000000E+00
  0.00000000E+00  0.00000000E+00  0.00000000E+00
  0.00000000E+00  0.00000000E+00  0.00000000E+00
  0.00000000E+00  0.00000000E+00  0.00000000E+00
  0.00000000E+00  0.00000000E+00  0.00000000E+00
  0.00000000E+00  0.00000000E+00  0.00000000E+00
  0.00000000E+00  0.00000000E+00  0.00000000E+00
  0.00000000E+00  0.00000000E+00  0.00000000E+00
  0.00000000E+00  0.00000000E+00  0.00000000E+00
  0.00000000E+00  0.00000000E+00  0.00000000E+00
  0.00000000E+00  0.00000000E+00  0.00000000E+00
  0.00000000E+00  0.00000000E+00  0.00000000E+00
  0.00000000E+00  0.00000000E+00  0.00000000E+00
  0.00000000E+00  0.00000000E+00  0.00000000E+00
  0.00000000E+00  0.00000000E+00  0.00000000E+00
  0.00000000E+00  0.00000000E+00  0.00000000E+00
  0.00000000E+00  0.00000000E+00  0.00000000E+00
  0.00000000E+00  0.00000000E+00  0.00000000E+00
  0.00000000E+00  0.00000000E+00  0.00000000E+00
  0.00000000E+00  0.00000000E+00  0.00000000E+00
