SiGeH16                                 
   1.00000000000000     
    20.0000000000000000    0.0000000000000000    0.0000000000000000
     0.0000000000000000   20.0000000000000000    0.0000000000000000
     0.0000000000000000    0.0000000000000000   20.0000000000000000
   Si   Ge   H 
     3     7    16
Direct
  0.4736946558152485  0.5562346626901437  0.3840659737182456
  0.3688861974275859  0.5395806221804714  0.4346858649730306
  0.5586671684539533  0.4313462481934343  0.5123627832362486
  0.5412982787406309  0.4574131261626837  0.3963088258214189
  0.5304746825934175  0.6489136021429575  0.4355942257079254
  0.3827129798181618  0.5148115593299536  0.5514521807613501
  0.5481154011781156  0.6256641217901421  0.5547505262238336
  0.6147409056349166  0.5232503424190819  0.5656926154377334
  0.4516614329192044  0.4139940439863022  0.5641255258417734
  0.4388381611592240  0.6084088245184749  0.6075387735580955
  0.4152459826494072  0.3534028930011083  0.5312822880850531
  0.4602123226198117  0.3975510366817304  0.6397929064208731
  0.6003352428151673  0.3691762976843637  0.5183308530322561
  0.6846948915298916  0.5343938954742340  0.5332903804142012
  0.6265110454106039  0.5077511414183787  0.6411003333721049
  0.6099860650861597  0.4681997375688782  0.3611214100558004
  0.5067978620037698  0.3973214216410055  0.3606070511629291
  0.4645767860246118  0.5705513106494349  0.3108971407509251
  0.5853471033953145  0.6854976068523215  0.5885104998909760
  0.4477018890651901  0.5927368535151329  0.6833097096778775
  0.3956104095683383  0.6729615349481218  0.6017282225731004
  0.3130372076802578  0.5026178583748461  0.5846884746020984
  0.3332060394146673  0.4827182770581760  0.4013811643308826
  0.3264315844783828  0.6008166053009151  0.4269513200643510
  0.4889289216008973  0.7143243421297727  0.4273925693558472
  0.5992567829170647  0.6607620342879390  0.4009553809310659
 
  0.00000000E+00  0.00000000E+00  0.00000000E+00
  0.00000000E+00  0.00000000E+00  0.00000000E+00
  0.00000000E+00  0.00000000E+00  0.00000000E+00
  0.00000000E+00  0.00000000E+00  0.00000000E+00
  0.00000000E+00  0.00000000E+00  0.00000000E+00
  0.00000000E+00  0.00000000E+00  0.00000000E+00
  0.00000000E+00  0.00000000E+00  0.00000000E+00
  0.00000000E+00  0.00000000E+00  0.00000000E+00
  0.00000000E+00  0.00000000E+00  0.00000000E+00
  0.00000000E+00  0.00000000E+00  0.00000000E+00
  0.00000000E+00  0.00000000E+00  0.00000000E+00
  0.00000000E+00  0.00000000E+00  0.00000000E+00
  0.00000000E+00  0.00000000E+00  0.00000000E+00
  0.00000000E+00  0.00000000E+00  0.00000000E+00
  0.00000000E+00  0.00000000E+00  0.00000000E+00
  0.00000000E+00  0.00000000E+00  0.00000000E+00
  0.00000000E+00  0.00000000E+00  0.00000000E+00
  0.00000000E+00  0.00000000E+00  0.00000000E+00
  0.00000000E+00  0.00000000E+00  0.00000000E+00
  0.00000000E+00  0.00000000E+00  0.00000000E+00
  0.00000000E+00  0.00000000E+00  0.00000000E+00
  0.00000000E+00  0.00000000E+00  0.00000000E+00
  0.00000000E+00  0.00000000E+00  0.00000000E+00
  0.00000000E+00  0.00000000E+00  0.00000000E+00
  0.00000000E+00  0.00000000E+00  0.00000000E+00
  0.00000000E+00  0.00000000E+00  0.00000000E+00
