SiGeH16                                 
   1.00000000000000     
    20.0000000000000000    0.0000000000000000    0.0000000000000000
     0.0000000000000000   20.0000000000000000    0.0000000000000000
     0.0000000000000000    0.0000000000000000   20.0000000000000000
   Si   Ge   H 
     2     8    16
Direct
  0.4751407295623002  0.5566586746990309  0.3827068132140740
  0.3827929432592283  0.5144648110398341  0.5532487710865456
  0.3689555457972876  0.5390597276480807  0.4363460017682971
  0.5420148593625124  0.4573998262668726  0.3936967973671223
  0.5312763769539638  0.6490133464614608  0.4352936756628589
  0.5587817190556442  0.4309610966984001  0.5123895965192102
  0.5478723615969231  0.6256390338326808  0.5546499297194841
  0.6163210879326914  0.5246239768327768  0.5667192678978727
  0.4491353403651384  0.4149608945325087  0.5652052801562698
  0.4384024310250959  0.6065735805865691  0.6068092333294587
  0.4130189424193193  0.3543979331297541  0.5320406115137659
  0.4587058093207912  0.3975262215564697  0.6405190516336814
  0.6012983318152665  0.3657310019114548  0.5192736366175290
  0.6862010320129890  0.5355932989650690  0.5341943191393739
  0.6277824911251320  0.5089109093247643  0.6421063917205468
  0.6111078133745167  0.4671777232710716  0.3590822963516007
  0.5070003781556126  0.3973471368682029  0.3584848484893543
  0.4641655459362131  0.5718303595069077  0.3099680500640679
  0.5833214251587169  0.6863230452870663  0.5888670228611660
  0.4478020785363459  0.5922222181838608  0.6827923158549069
  0.3952733762087740  0.6711969877045607  0.6008260704448688
  0.3154112515059515  0.5038636012299104  0.5846926404544392
  0.3312781311510759  0.4804475792271355  0.4014487189662076
  0.3244490010152924  0.6024699603842354  0.4279313988347056
  0.4892598568224125  0.7141463430156023  0.4272713450157747
  0.6002011405307991  0.6618607118357237  0.4013529153168147
 
  0.00000000E+00  0.00000000E+00  0.00000000E+00
  0.00000000E+00  0.00000000E+00  0.00000000E+00
  0.00000000E+00  0.00000000E+00  0.00000000E+00
  0.00000000E+00  0.00000000E+00  0.00000000E+00
  0.00000000E+00  0.00000000E+00  0.00000000E+00
  0.00000000E+00  0.00000000E+00  0.00000000E+00
  0.00000000E+00  0.00000000E+00  0.00000000E+00
  0.00000000E+00  0.00000000E+00  0.00000000E+00
  0.00000000E+00  0.00000000E+00  0.00000000E+00
  0.00000000E+00  0.00000000E+00  0.00000000E+00
  0.00000000E+00  0.00000000E+00  0.00000000E+00
  0.00000000E+00  0.00000000E+00  0.00000000E+00
  0.00000000E+00  0.00000000E+00  0.00000000E+00
  0.00000000E+00  0.00000000E+00  0.00000000E+00
  0.00000000E+00  0.00000000E+00  0.00000000E+00
  0.00000000E+00  0.00000000E+00  0.00000000E+00
  0.00000000E+00  0.00000000E+00  0.00000000E+00
  0.00000000E+00  0.00000000E+00  0.00000000E+00
  0.00000000E+00  0.00000000E+00  0.00000000E+00
  0.00000000E+00  0.00000000E+00  0.00000000E+00
  0.00000000E+00  0.00000000E+00  0.00000000E+00
  0.00000000E+00  0.00000000E+00  0.00000000E+00
  0.00000000E+00  0.00000000E+00  0.00000000E+00
  0.00000000E+00  0.00000000E+00  0.00000000E+00
  0.00000000E+00  0.00000000E+00  0.00000000E+00
  0.00000000E+00  0.00000000E+00  0.00000000E+00
