SiGeH16                                 
   1.00000000000000     
    20.0000000000000000    0.0000000000000000    0.0000000000000000
     0.0000000000000000   20.0000000000000000    0.0000000000000000
     0.0000000000000000    0.0000000000000000   20.0000000000000000
   Si   Ge   H 
     3     7    16
Direct
  0.4736208563958217  0.5564462872333823  0.3835274237045202
  0.3693147446403089  0.5390912735020899  0.4349033322603491
  0.4501212294693963  0.4139685150023131  0.5648363860173774
  0.5408817129282991  0.4574378873696883  0.3944912123189687
  0.5305741224725026  0.6487354251855786  0.4355779650870449
  0.3838849653489309  0.5133622185774066  0.5515355158131311
  0.5572204039976213  0.4307291148880130  0.5131861638036708
  0.5483155533179919  0.6262678226280307  0.5549214947553920
  0.6156106946598471  0.5244240477938097  0.5668792943934101
  0.4391492670450217  0.6076780020239887  0.6074403140577880
  0.4153523994759191  0.3558678580924404  0.5327369743404664
  0.4586890318095729  0.3985201839312012  0.6376187974351453
  0.6007726303274684  0.3661649740216266  0.5194017211525538
  0.6854027556620909  0.5345214899654428  0.5337679974350809
  0.6276568916799188  0.5088810140738805  0.6422639006818224
  0.6101122407560567  0.4679479801581033  0.3603743963629795
  0.5065649426113649  0.3973261704927658  0.3587056395677595
  0.4638044187855478  0.5717341979226533  0.3106333525742036
  0.5847290013979917  0.6867727676208132  0.5883945319362721
  0.4477673323910787  0.5925827698425266  0.6833684721302714
  0.3951633829218222  0.6716725872726754  0.6012309992796585
  0.3138316748428604  0.5024429301955421  0.5843297957600373
  0.3333817367206477  0.4825015017719341  0.4013224218904253
  0.3267731874180504  0.6004182761944373  0.4282458806962368
  0.4890108630696484  0.7141236241541289  0.4273758803870305
  0.5992639598542139  0.6607810800855329  0.4008471361584018
 
  0.00000000E+00  0.00000000E+00  0.00000000E+00
  0.00000000E+00  0.00000000E+00  0.00000000E+00
  0.00000000E+00  0.00000000E+00  0.00000000E+00
  0.00000000E+00  0.00000000E+00  0.00000000E+00
  0.00000000E+00  0.00000000E+00  0.00000000E+00
  0.00000000E+00  0.00000000E+00  0.00000000E+00
  0.00000000E+00  0.00000000E+00  0.00000000E+00
  0.00000000E+00  0.00000000E+00  0.00000000E+00
  0.00000000E+00  0.00000000E+00  0.00000000E+00
  0.00000000E+00  0.00000000E+00  0.00000000E+00
  0.00000000E+00  0.00000000E+00  0.00000000E+00
  0.00000000E+00  0.00000000E+00  0.00000000E+00
  0.00000000E+00  0.00000000E+00  0.00000000E+00
  0.00000000E+00  0.00000000E+00  0.00000000E+00
  0.00000000E+00  0.00000000E+00  0.00000000E+00
  0.00000000E+00  0.00000000E+00  0.00000000E+00
  0.00000000E+00  0.00000000E+00  0.00000000E+00
  0.00000000E+00  0.00000000E+00  0.00000000E+00
  0.00000000E+00  0.00000000E+00  0.00000000E+00
  0.00000000E+00  0.00000000E+00  0.00000000E+00
  0.00000000E+00  0.00000000E+00  0.00000000E+00
  0.00000000E+00  0.00000000E+00  0.00000000E+00
  0.00000000E+00  0.00000000E+00  0.00000000E+00
  0.00000000E+00  0.00000000E+00  0.00000000E+00
  0.00000000E+00  0.00000000E+00  0.00000000E+00
  0.00000000E+00  0.00000000E+00  0.00000000E+00
