SiGeH16                                 
   1.00000000000000     
    20.0000000000000000    0.0000000000000000    0.0000000000000000
     0.0000000000000000   20.0000000000000000    0.0000000000000000
     0.0000000000000000    0.0000000000000000   20.0000000000000000
   Si   Ge   H 
     3     7    16
Direct
  0.4736801213686927  0.5562558777537272  0.3841937652888184
  0.3697928223595418  0.5390229161441625  0.4367872218191417
  0.3832318689725244  0.5149321849306026  0.5512156705662578
  0.5415159387437064  0.4574900681959226  0.3939238518818413
  0.5307987462893844  0.6487834427361229  0.4354495601834473
  0.5588996315900903  0.4308402213387401  0.5124271240139937
  0.5479787422954272  0.6257426041594130  0.5547347150244485
  0.6164347180725851  0.5246140892697957  0.5667843225409700
  0.4490116299168876  0.4152247525186135  0.5647297720501225
  0.4382986926182828  0.6065153968407071  0.6062674732712694
  0.4129575355277922  0.3544823054310253  0.5318704359689688
  0.4577794993848399  0.3985778371711290  0.6403048631335946
  0.6013993142158642  0.3656379326845712  0.5193119945420382
  0.6864058409047487  0.5355695108878236  0.5343468489352285
  0.6280184206756035  0.5089057537526350  0.6421977538963011
  0.6102058306846443  0.4682380569023369  0.3588276985960553
  0.5068158455016502  0.3973774411240070  0.3585453583335753
  0.4624850465247062  0.5713997066952053  0.3115233126445079
  0.5834150859396366  0.6863990659355129  0.5889406090373391
  0.4469894815220959  0.5912542968437469  0.6821437661890944
  0.3952170638377136  0.6711803821044775  0.6006389860906025
  0.3157831594362743  0.5043741380286104  0.5824352100757664
  0.3339919204752506  0.4822242870435592  0.4033552858735862
  0.3273665469792838  0.6003817097847612  0.4289919636519069
  0.4890832764740050  0.7140730891264151  0.4273149282396556
  0.5994132196887618  0.6609029325963817  0.4006545081514658
 
  0.00000000E+00  0.00000000E+00  0.00000000E+00
  0.00000000E+00  0.00000000E+00  0.00000000E+00
  0.00000000E+00  0.00000000E+00  0.00000000E+00
  0.00000000E+00  0.00000000E+00  0.00000000E+00
  0.00000000E+00  0.00000000E+00  0.00000000E+00
  0.00000000E+00  0.00000000E+00  0.00000000E+00
  0.00000000E+00  0.00000000E+00  0.00000000E+00
  0.00000000E+00  0.00000000E+00  0.00000000E+00
  0.00000000E+00  0.00000000E+00  0.00000000E+00
  0.00000000E+00  0.00000000E+00  0.00000000E+00
  0.00000000E+00  0.00000000E+00  0.00000000E+00
  0.00000000E+00  0.00000000E+00  0.00000000E+00
  0.00000000E+00  0.00000000E+00  0.00000000E+00
  0.00000000E+00  0.00000000E+00  0.00000000E+00
  0.00000000E+00  0.00000000E+00  0.00000000E+00
  0.00000000E+00  0.00000000E+00  0.00000000E+00
  0.00000000E+00  0.00000000E+00  0.00000000E+00
  0.00000000E+00  0.00000000E+00  0.00000000E+00
  0.00000000E+00  0.00000000E+00  0.00000000E+00
  0.00000000E+00  0.00000000E+00  0.00000000E+00
  0.00000000E+00  0.00000000E+00  0.00000000E+00
  0.00000000E+00  0.00000000E+00  0.00000000E+00
  0.00000000E+00  0.00000000E+00  0.00000000E+00
  0.00000000E+00  0.00000000E+00  0.00000000E+00
  0.00000000E+00  0.00000000E+00  0.00000000E+00
  0.00000000E+00  0.00000000E+00  0.00000000E+00
