SiGeH16                                 
   1.00000000000000     
    20.0000000000000000    0.0000000000000000    0.0000000000000000
     0.0000000000000000   20.0000000000000000    0.0000000000000000
     0.0000000000000000    0.0000000000000000   20.0000000000000000
   Si   Ge   H 
     4     6    16
Direct
  0.4756183515862490  0.5560173910894132  0.3857978061553910
  0.3698486001684724  0.5394185740609388  0.4349663077010866
  0.5410886795437047  0.4585024342399375  0.3950372050231752
  0.5305089937944145  0.6473609698578944  0.4360403305920682
  0.3818428290241666  0.5146926628303121  0.5519513254395505
  0.5587260627115157  0.4311050682691797  0.5107049202566978
  0.5477943442548552  0.6261975352984560  0.5530624564654314
  0.6158045574356197  0.5247903702285357  0.5658091414453269
  0.4499140534542651  0.4133227200866058  0.5646968586458206
  0.4389889494729718  0.6083456554725950  0.6070480517973870
  0.4136055130933720  0.3525900298085630  0.5320439922239782
  0.4597502710849137  0.3969215691316442  0.6401603301630753
  0.6021346236936267  0.3664519512745650  0.5171225604646654
  0.6860492951312359  0.5356554588828515  0.5338653642716250
  0.6265817720146134  0.5090151177059603  0.6412787892971108
  0.6072589963520050  0.4689838881988173  0.3613770671121412
  0.5067125241816092  0.4013902744602528  0.3606991012698231
  0.4658382002727122  0.5712977461185302  0.3128785929898765
  0.5841833142027674  0.6866481295191071  0.5866363581933491
  0.4487666790031217  0.5930250105009259  0.6827463941032414
  0.3956666611334474  0.6728935994454895  0.6015979661798757
  0.3118197464668104  0.5036337460801342  0.5848150579465232
  0.3345207482967316  0.4827600010643224  0.4008524623122664
  0.3278886285009950  0.6009843498272811  0.4265214398318202
  0.4894352730266108  0.7095236179163421  0.4276031163873800
  0.5966223320991868  0.6588721286313497  0.4026040037313098
 
  0.00000000E+00  0.00000000E+00  0.00000000E+00
  0.00000000E+00  0.00000000E+00  0.00000000E+00
  0.00000000E+00  0.00000000E+00  0.00000000E+00
  0.00000000E+00  0.00000000E+00  0.00000000E+00
  0.00000000E+00  0.00000000E+00  0.00000000E+00
  0.00000000E+00  0.00000000E+00  0.00000000E+00
  0.00000000E+00  0.00000000E+00  0.00000000E+00
  0.00000000E+00  0.00000000E+00  0.00000000E+00
  0.00000000E+00  0.00000000E+00  0.00000000E+00
  0.00000000E+00  0.00000000E+00  0.00000000E+00
  0.00000000E+00  0.00000000E+00  0.00000000E+00
  0.00000000E+00  0.00000000E+00  0.00000000E+00
  0.00000000E+00  0.00000000E+00  0.00000000E+00
  0.00000000E+00  0.00000000E+00  0.00000000E+00
  0.00000000E+00  0.00000000E+00  0.00000000E+00
  0.00000000E+00  0.00000000E+00  0.00000000E+00
  0.00000000E+00  0.00000000E+00  0.00000000E+00
  0.00000000E+00  0.00000000E+00  0.00000000E+00
  0.00000000E+00  0.00000000E+00  0.00000000E+00
  0.00000000E+00  0.00000000E+00  0.00000000E+00
  0.00000000E+00  0.00000000E+00  0.00000000E+00
  0.00000000E+00  0.00000000E+00  0.00000000E+00
  0.00000000E+00  0.00000000E+00  0.00000000E+00
  0.00000000E+00  0.00000000E+00  0.00000000E+00
  0.00000000E+00  0.00000000E+00  0.00000000E+00
  0.00000000E+00  0.00000000E+00  0.00000000E+00
