SiGeH16                                 
   1.00000000000000     
    20.0000000000000000    0.0000000000000000    0.0000000000000000
     0.0000000000000000   20.0000000000000000    0.0000000000000000
     0.0000000000000000    0.0000000000000000   20.0000000000000000
   Si   Ge   H 
     4     6    16
Direct
  0.4746878018448914  0.5548421717561660  0.3842001515208852
  0.3698028308828778  0.5386603759113758  0.4349621431478865
  0.5405478071631334  0.4579757746472667  0.3951498257348269
  0.4502223514815528  0.4141741372043933  0.5643003160688845
  0.5307939784896391  0.6481688840252205  0.4356280299222878
  0.3836237413839572  0.5133580075705304  0.5517318616596267
  0.5566545154239274  0.4315865046606585  0.5113879520659638
  0.5484161646291131  0.6265044434917375  0.5551073009507741
  0.6154262120022952  0.5244042037731507  0.5663722755343468
  0.4391223510327004  0.6077195687267922  0.6074898955023486
  0.4153144194852050  0.3559346396463247  0.5325935189583468
  0.4598259376717846  0.3986725481735426  0.6369421030304386
  0.6001919701477537  0.3670257614314960  0.5177015431421012
  0.6853435405191163  0.5345561234521720  0.5335543019387472
  0.6270723273380630  0.5078642026407771  0.6415924604477756
  0.6071973371108430  0.4685227784263092  0.3625396386406778
  0.5071832947579615  0.4002294046495031  0.3608881752154297
  0.4648916404504174  0.5700971811883985  0.3113031815439950
  0.5848142282998926  0.6870258654986071  0.5885885599274708
  0.4477567278865669  0.5925878680938461  0.6834095682244167
  0.3951342209084640  0.6717087484588246  0.6012435213288612
  0.3135584126994387  0.5024637150885641  0.5845260345049482
  0.3334634851466150  0.4823179445017033  0.4013975008098375
  0.3280012932935140  0.6004357485743262  0.4276459456777857
  0.4885115753072119  0.7129929076222185  0.4267656695301585
  0.5994118346430585  0.6605704907861002  0.4008955249711763
 
  0.00000000E+00  0.00000000E+00  0.00000000E+00
  0.00000000E+00  0.00000000E+00  0.00000000E+00
  0.00000000E+00  0.00000000E+00  0.00000000E+00
  0.00000000E+00  0.00000000E+00  0.00000000E+00
  0.00000000E+00  0.00000000E+00  0.00000000E+00
  0.00000000E+00  0.00000000E+00  0.00000000E+00
  0.00000000E+00  0.00000000E+00  0.00000000E+00
  0.00000000E+00  0.00000000E+00  0.00000000E+00
  0.00000000E+00  0.00000000E+00  0.00000000E+00
  0.00000000E+00  0.00000000E+00  0.00000000E+00
  0.00000000E+00  0.00000000E+00  0.00000000E+00
  0.00000000E+00  0.00000000E+00  0.00000000E+00
  0.00000000E+00  0.00000000E+00  0.00000000E+00
  0.00000000E+00  0.00000000E+00  0.00000000E+00
  0.00000000E+00  0.00000000E+00  0.00000000E+00
  0.00000000E+00  0.00000000E+00  0.00000000E+00
  0.00000000E+00  0.00000000E+00  0.00000000E+00
  0.00000000E+00  0.00000000E+00  0.00000000E+00
  0.00000000E+00  0.00000000E+00  0.00000000E+00
  0.00000000E+00  0.00000000E+00  0.00000000E+00
  0.00000000E+00  0.00000000E+00  0.00000000E+00
  0.00000000E+00  0.00000000E+00  0.00000000E+00
  0.00000000E+00  0.00000000E+00  0.00000000E+00
  0.00000000E+00  0.00000000E+00  0.00000000E+00
  0.00000000E+00  0.00000000E+00  0.00000000E+00
  0.00000000E+00  0.00000000E+00  0.00000000E+00
