SiGeH16                                 
   1.00000000000000     
    20.0000000000000000    0.0000000000000000    0.0000000000000000
     0.0000000000000000   20.0000000000000000    0.0000000000000000
     0.0000000000000000    0.0000000000000000   20.0000000000000000
   Si   Ge   H 
     3     7    16
Direct
  0.4752508761553615  0.5565294935820241  0.3831697266738845
  0.3832526934117534  0.5144932437639238  0.5530687150917964
  0.5581827692238110  0.4318303736825896  0.5122742167842783
  0.3688203661050350  0.5392294647207642  0.4363158156301136
  0.5420358071258683  0.4573902020652915  0.3959226949286200
  0.5311827771009807  0.6491942757353282  0.4352166502180001
  0.5476519532492680  0.6252240613270335  0.5544293749097073
  0.6149507716282409  0.5232297510803878  0.5656288252362607
  0.4509347386446574  0.4157610353949991  0.5641535073782288
  0.4382500572414743  0.6067281426461958  0.6068391154042508
  0.4146186446655136  0.3552054243371642  0.5311525601698655
  0.4602268707199436  0.3982566763661763  0.6394917872413466
  0.5989482950424598  0.3691645403526136  0.5188392402237634
  0.6849005798356943  0.5344341741441143  0.5332531940357830
  0.6265176653416263  0.5077642497982767  0.6410864072816193
  0.6110111139944958  0.4671674892241769  0.3610587227891170
  0.5070376375100873  0.3974328350090562  0.3604936773722797
  0.4649179550278500  0.5706938909472996  0.3102022251855701
  0.5840147407848689  0.6851586478091491  0.5889547996723044
  0.4478101282324168  0.5922039111450023  0.6827642083456000
  0.3951858783790873  0.6713498311434547  0.6008246385290412
  0.3162545983817989  0.5027529247689262  0.5847690244220985
  0.3313184527506207  0.4804523690652412  0.4014735411698027
  0.3243313490604277  0.6026202725103971  0.4279069083579573
  0.4891769859779371  0.7143005461707180  0.4272589409405974
  0.6001862944087146  0.6618321732097017  0.4013684820081092
 
  0.00000000E+00  0.00000000E+00  0.00000000E+00
  0.00000000E+00  0.00000000E+00  0.00000000E+00
  0.00000000E+00  0.00000000E+00  0.00000000E+00
  0.00000000E+00  0.00000000E+00  0.00000000E+00
  0.00000000E+00  0.00000000E+00  0.00000000E+00
  0.00000000E+00  0.00000000E+00  0.00000000E+00
  0.00000000E+00  0.00000000E+00  0.00000000E+00
  0.00000000E+00  0.00000000E+00  0.00000000E+00
  0.00000000E+00  0.00000000E+00  0.00000000E+00
  0.00000000E+00  0.00000000E+00  0.00000000E+00
  0.00000000E+00  0.00000000E+00  0.00000000E+00
  0.00000000E+00  0.00000000E+00  0.00000000E+00
  0.00000000E+00  0.00000000E+00  0.00000000E+00
  0.00000000E+00  0.00000000E+00  0.00000000E+00
  0.00000000E+00  0.00000000E+00  0.00000000E+00
  0.00000000E+00  0.00000000E+00  0.00000000E+00
  0.00000000E+00  0.00000000E+00  0.00000000E+00
  0.00000000E+00  0.00000000E+00  0.00000000E+00
  0.00000000E+00  0.00000000E+00  0.00000000E+00
  0.00000000E+00  0.00000000E+00  0.00000000E+00
  0.00000000E+00  0.00000000E+00  0.00000000E+00
  0.00000000E+00  0.00000000E+00  0.00000000E+00
  0.00000000E+00  0.00000000E+00  0.00000000E+00
  0.00000000E+00  0.00000000E+00  0.00000000E+00
  0.00000000E+00  0.00000000E+00  0.00000000E+00
  0.00000000E+00  0.00000000E+00  0.00000000E+00
