SiGeH16                                 
   1.00000000000000     
    20.0000000000000000    0.0000000000000000    0.0000000000000000
     0.0000000000000000   20.0000000000000000    0.0000000000000000
     0.0000000000000000    0.0000000000000000   20.0000000000000000
   Si   Ge   H 
     4     6    16
Direct
  0.4735900717599932  0.5562954045552146  0.3839852073824161
  0.3697793636005855  0.5390231139541370  0.4367807723243615
  0.3830060625324165  0.5149094152092104  0.5512595275558283
  0.6156200288006701  0.5246661617328385  0.5663450675233932
  0.5416793108181892  0.4578405458769126  0.3943284534083062
  0.5310060514390429  0.6483181369225335  0.4356725496247265
  0.5594280372816698  0.4326676120108672  0.5131642611440626
  0.5487137684520604  0.6238440030221142  0.5546597472339556
  0.4493581004935407  0.4156596339097192  0.5647987436441610
  0.4386904428778635  0.6061306034918061  0.6061557701001874
  0.4142260500692245  0.3546871304439847  0.5313557337274162
  0.4578772774161308  0.3987729301853165  0.6403705516108360
  0.6018780465309277  0.3674373186867328  0.5200181854312831
  0.6827260938898263  0.5352775836677566  0.5347597253508738
  0.6263091235552736  0.5095129558992895  0.6389367095901264
  0.6102738845417193  0.4684188548298991  0.3589489560719414
  0.5070823212157407  0.3971148344925552  0.3598934127392965
  0.4623840910646919  0.5714445572030655  0.3112888761765475
  0.5840952869650948  0.6845338313857638  0.5888458785355937
  0.4471100170890239  0.5910618636640379  0.6821223771203648
  0.3964914254595016  0.6713466146646425  0.6001140956069762
  0.3155299694012683  0.5043491230652819  0.5824875643621965
  0.3339400038600431  0.4822872314837383  0.4033440159700419
  0.3273203920188834  0.6003217028469692  0.4289537984199541
  0.4893515244172804  0.7137832518070368  0.4286355519435432
  0.5995032544493384  0.6606955849885736  0.3996914674016074
 
  0.00000000E+00  0.00000000E+00  0.00000000E+00
  0.00000000E+00  0.00000000E+00  0.00000000E+00
  0.00000000E+00  0.00000000E+00  0.00000000E+00
  0.00000000E+00  0.00000000E+00  0.00000000E+00
  0.00000000E+00  0.00000000E+00  0.00000000E+00
  0.00000000E+00  0.00000000E+00  0.00000000E+00
  0.00000000E+00  0.00000000E+00  0.00000000E+00
  0.00000000E+00  0.00000000E+00  0.00000000E+00
  0.00000000E+00  0.00000000E+00  0.00000000E+00
  0.00000000E+00  0.00000000E+00  0.00000000E+00
  0.00000000E+00  0.00000000E+00  0.00000000E+00
  0.00000000E+00  0.00000000E+00  0.00000000E+00
  0.00000000E+00  0.00000000E+00  0.00000000E+00
  0.00000000E+00  0.00000000E+00  0.00000000E+00
  0.00000000E+00  0.00000000E+00  0.00000000E+00
  0.00000000E+00  0.00000000E+00  0.00000000E+00
  0.00000000E+00  0.00000000E+00  0.00000000E+00
  0.00000000E+00  0.00000000E+00  0.00000000E+00
  0.00000000E+00  0.00000000E+00  0.00000000E+00
  0.00000000E+00  0.00000000E+00  0.00000000E+00
  0.00000000E+00  0.00000000E+00  0.00000000E+00
  0.00000000E+00  0.00000000E+00  0.00000000E+00
  0.00000000E+00  0.00000000E+00  0.00000000E+00
  0.00000000E+00  0.00000000E+00  0.00000000E+00
  0.00000000E+00  0.00000000E+00  0.00000000E+00
  0.00000000E+00  0.00000000E+00  0.00000000E+00
