SiGeH16                                 
   1.00000000000000     
    20.0000000000000000    0.0000000000000000    0.0000000000000000
     0.0000000000000000   20.0000000000000000    0.0000000000000000
     0.0000000000000000    0.0000000000000000   20.0000000000000000
   Si   Ge   H 
     4     6    16
Direct
  0.4747782211328442  0.5547109258668499  0.3848433605466113
  0.3693260933513187  0.5389010082348449  0.4346267718937611
  0.5408747297911276  0.4578366645745504  0.3946237403156232
  0.5477963621698763  0.6254667786731432  0.5545744372988324
  0.5308437918557942  0.6472479668326088  0.4376997527240576
  0.3824876808983930  0.5148916287605658  0.5516501893119781
  0.5584012507069858  0.4317657904145733  0.5106313349413369
  0.6144248009441782  0.5261387072175978  0.5658670735603835
  0.4498399557874180  0.4131913308123529  0.5646394550248743
  0.4407820420091042  0.6081889466815369  0.6063613098792615
  0.4135314350114854  0.3524344486115467  0.5320384033273129
  0.4597278502899016  0.3968822873789222  0.6401489019423110
  0.6026645148445766  0.3677937611126652  0.5176025864646618
  0.6845673735126994  0.5369989964606248  0.5337001329786588
  0.6258916766313618  0.5092609287903400  0.6410475071795219
  0.6070399230609524  0.4688664585295257  0.3612404919467878
  0.5072996780116483  0.4000389539643621  0.3606793477282011
  0.4655158827076917  0.5709996757045488  0.3121189107917743
  0.5827670523836588  0.6836620765478472  0.5866818782173127
  0.4492520632826214  0.5927156476436153  0.6822386343387734
  0.3974369732869221  0.6726989931307017  0.6006736685651788
  0.3126867194353835  0.5048237877628097  0.5852162602180755
  0.3331844182005597  0.4823146778967740  0.4012822604582880
  0.3278760015649667  0.6007653348640716  0.4263368275111858
  0.4886050666824246  0.7120825635559385  0.4286094771809914
  0.5993684424461065  0.6597216599770945  0.4017842856542421
 
  0.00000000E+00  0.00000000E+00  0.00000000E+00
  0.00000000E+00  0.00000000E+00  0.00000000E+00
  0.00000000E+00  0.00000000E+00  0.00000000E+00
  0.00000000E+00  0.00000000E+00  0.00000000E+00
  0.00000000E+00  0.00000000E+00  0.00000000E+00
  0.00000000E+00  0.00000000E+00  0.00000000E+00
  0.00000000E+00  0.00000000E+00  0.00000000E+00
  0.00000000E+00  0.00000000E+00  0.00000000E+00
  0.00000000E+00  0.00000000E+00  0.00000000E+00
  0.00000000E+00  0.00000000E+00  0.00000000E+00
  0.00000000E+00  0.00000000E+00  0.00000000E+00
  0.00000000E+00  0.00000000E+00  0.00000000E+00
  0.00000000E+00  0.00000000E+00  0.00000000E+00
  0.00000000E+00  0.00000000E+00  0.00000000E+00
  0.00000000E+00  0.00000000E+00  0.00000000E+00
  0.00000000E+00  0.00000000E+00  0.00000000E+00
  0.00000000E+00  0.00000000E+00  0.00000000E+00
  0.00000000E+00  0.00000000E+00  0.00000000E+00
  0.00000000E+00  0.00000000E+00  0.00000000E+00
  0.00000000E+00  0.00000000E+00  0.00000000E+00
  0.00000000E+00  0.00000000E+00  0.00000000E+00
  0.00000000E+00  0.00000000E+00  0.00000000E+00
  0.00000000E+00  0.00000000E+00  0.00000000E+00
  0.00000000E+00  0.00000000E+00  0.00000000E+00
  0.00000000E+00  0.00000000E+00  0.00000000E+00
  0.00000000E+00  0.00000000E+00  0.00000000E+00
