SiGeH16                                 
   1.00000000000000     
    20.0000000000000000    0.0000000000000000    0.0000000000000000
     0.0000000000000000   20.0000000000000000    0.0000000000000000
     0.0000000000000000    0.0000000000000000   20.0000000000000000
   Si   Ge   H 
     2     8    16
Direct
  0.3672365246459917  0.5388993613051850  0.4352376154445063
  0.5422770237662282  0.4561783157023390  0.3944188083830440
  0.4745728980510997  0.5549308441625046  0.3834977124427981
  0.5317748928721012  0.6500082608320717  0.4360898642739319
  0.3817034893607023  0.5147163747069957  0.5519922711585099
  0.5588301688786939  0.4310144212009276  0.5106876817484266
  0.5484622201772990  0.6265429716851908  0.5552359868115390
  0.6158762271967657  0.5246063547682389  0.5660630868665247
  0.4499476032944419  0.4135281898871891  0.5644416913299874
  0.4389003238234596  0.6082386714641856  0.6073385351037877
  0.4136442182012868  0.3526964587758086  0.5319981795957411
  0.4597598655232474  0.3970689993861714  0.6399172198124788
  0.6021853444161158  0.3664731207002647  0.5183743429573781
  0.6860406252285656  0.5356301633313060  0.5340185588007843
  0.6271632221323090  0.5079426897540028  0.6413222075118582
  0.6083713591993478  0.4670503128862130  0.3609774890778270
  0.5085870496245396  0.3984544528094264  0.3605580341132218
  0.4644737037007763  0.5709498257412570  0.3077037312896080
  0.5848337829161921  0.6864732070769910  0.5897972217261251
  0.4476664236573904  0.5927541623588776  0.6831837907948028
  0.3957039082525893  0.6728464642309966  0.6017416582555831
  0.3122512599651217  0.5034742372506790  0.5859693208024914
  0.3312362995012214  0.4822627723722007  0.4019177570662391
  0.3256997531460758  0.6006244335326721  0.4268997862044761
  0.4893935080825470  0.7147427689095895  0.4272097183865896
  0.6003783043858842  0.6622921651687195  0.4013247300417349
 
  0.00000000E+00  0.00000000E+00  0.00000000E+00
  0.00000000E+00  0.00000000E+00  0.00000000E+00
  0.00000000E+00  0.00000000E+00  0.00000000E+00
  0.00000000E+00  0.00000000E+00  0.00000000E+00
  0.00000000E+00  0.00000000E+00  0.00000000E+00
  0.00000000E+00  0.00000000E+00  0.00000000E+00
  0.00000000E+00  0.00000000E+00  0.00000000E+00
  0.00000000E+00  0.00000000E+00  0.00000000E+00
  0.00000000E+00  0.00000000E+00  0.00000000E+00
  0.00000000E+00  0.00000000E+00  0.00000000E+00
  0.00000000E+00  0.00000000E+00  0.00000000E+00
  0.00000000E+00  0.00000000E+00  0.00000000E+00
  0.00000000E+00  0.00000000E+00  0.00000000E+00
  0.00000000E+00  0.00000000E+00  0.00000000E+00
  0.00000000E+00  0.00000000E+00  0.00000000E+00
  0.00000000E+00  0.00000000E+00  0.00000000E+00
  0.00000000E+00  0.00000000E+00  0.00000000E+00
  0.00000000E+00  0.00000000E+00  0.00000000E+00
  0.00000000E+00  0.00000000E+00  0.00000000E+00
  0.00000000E+00  0.00000000E+00  0.00000000E+00
  0.00000000E+00  0.00000000E+00  0.00000000E+00
  0.00000000E+00  0.00000000E+00  0.00000000E+00
  0.00000000E+00  0.00000000E+00  0.00000000E+00
  0.00000000E+00  0.00000000E+00  0.00000000E+00
  0.00000000E+00  0.00000000E+00  0.00000000E+00
  0.00000000E+00  0.00000000E+00  0.00000000E+00
