SiGeH16                                 
   1.00000000000000     
    20.0000000000000000    0.0000000000000000    0.0000000000000000
     0.0000000000000000   20.0000000000000000    0.0000000000000000
     0.0000000000000000    0.0000000000000000   20.0000000000000000
   Si   Ge   H 
     3     7    16
Direct
  0.3671793243837485  0.5389037694147589  0.4352037630233383
  0.5424285619841385  0.4565011150451070  0.3948191087879493
  0.6151164134848628  0.5246528724517106  0.5657104089058720
  0.4744819095819750  0.5549178590525088  0.3832887198720059
  0.5320050280591531  0.6495341698145012  0.4363331877518348
  0.3814883277372587  0.5147179238762689  0.5520094348710884
  0.5593726164366473  0.4329468698149270  0.5114114255037023
  0.5492180270871003  0.6245489621926907  0.5551698671505108
  0.4503157344241160  0.4139752880230176  0.5645207739387459
  0.4393238441727263  0.6078430360055123  0.6072284815236415
  0.4148778960466544  0.3529355780609151  0.5315102739502251
  0.4598507591662511  0.3972545365331399  0.6399992686810592
  0.6025881396017496  0.3683003942421976  0.5190377400495905
  0.6824156756067481  0.5353475964643977  0.5345253121504214
  0.6255408551204695  0.5085445777934012  0.6380963735910896
  0.6084122013533673  0.4672509091406312  0.3610646845499090
  0.5088341911570566  0.3982375162546177  0.3618776691581189
  0.4643597336032386  0.5709819842652806  0.3074965947475405
  0.5854409833380601  0.6845877830813691  0.5896628069024175
  0.4477589432282656  0.5925686663789662  0.6831688647790841
  0.3969495840804314  0.6729574121732469  0.6012400855844788
  0.3120241765612377  0.5034586767268507  0.5859873357928080
  0.3312027519232004  0.4822307820803431  0.4018890184367478
  0.3256578045753571  0.6006670499038478  0.4268808131685873
  0.4896535956989396  0.7144317468416830  0.4284596546444916
  0.6004729215872189  0.6621029243680994  0.4003253324847384
 
  0.00000000E+00  0.00000000E+00  0.00000000E+00
  0.00000000E+00  0.00000000E+00  0.00000000E+00
  0.00000000E+00  0.00000000E+00  0.00000000E+00
  0.00000000E+00  0.00000000E+00  0.00000000E+00
  0.00000000E+00  0.00000000E+00  0.00000000E+00
  0.00000000E+00  0.00000000E+00  0.00000000E+00
  0.00000000E+00  0.00000000E+00  0.00000000E+00
  0.00000000E+00  0.00000000E+00  0.00000000E+00
  0.00000000E+00  0.00000000E+00  0.00000000E+00
  0.00000000E+00  0.00000000E+00  0.00000000E+00
  0.00000000E+00  0.00000000E+00  0.00000000E+00
  0.00000000E+00  0.00000000E+00  0.00000000E+00
  0.00000000E+00  0.00000000E+00  0.00000000E+00
  0.00000000E+00  0.00000000E+00  0.00000000E+00
  0.00000000E+00  0.00000000E+00  0.00000000E+00
  0.00000000E+00  0.00000000E+00  0.00000000E+00
  0.00000000E+00  0.00000000E+00  0.00000000E+00
  0.00000000E+00  0.00000000E+00  0.00000000E+00
  0.00000000E+00  0.00000000E+00  0.00000000E+00
  0.00000000E+00  0.00000000E+00  0.00000000E+00
  0.00000000E+00  0.00000000E+00  0.00000000E+00
  0.00000000E+00  0.00000000E+00  0.00000000E+00
  0.00000000E+00  0.00000000E+00  0.00000000E+00
  0.00000000E+00  0.00000000E+00  0.00000000E+00
  0.00000000E+00  0.00000000E+00  0.00000000E+00
  0.00000000E+00  0.00000000E+00  0.00000000E+00
