SiGeH16                                 
   1.00000000000000     
    20.0000000000000000    0.0000000000000000    0.0000000000000000
     0.0000000000000000   20.0000000000000000    0.0000000000000000
     0.0000000000000000    0.0000000000000000   20.0000000000000000
   Si   Ge   H 
     4     6    16
Direct
  0.4735900717599941  0.5562954045552170  0.3839852073824160
  0.3697793636005886  0.5390231139541383  0.4367807723243624
  0.3830060625324131  0.5149094152092092  0.5512595275558290
  0.6156200288006715  0.5246661617328379  0.5663450675233904
  0.5416793108181882  0.4578405458769127  0.3943284534083066
  0.5310060514390419  0.6483181369225368  0.4356725496247275
  0.5594280372816715  0.4326676120108695  0.5131642611440609
  0.5487137684520609  0.6238440030221166  0.5546597472339574
  0.4493581004935385  0.4156596339097176  0.5647987436441622
  0.4386904428778624  0.6061306034918097  0.6061557701001878
  0.4142260500692274  0.3546871304439871  0.5313557337274136
  0.4578772774161284  0.3987729301853143  0.6403705516108384
  0.6018780465309252  0.3674373186867336  0.5200181854312838
  0.6827260938898250  0.5352775836677593  0.5347597253508717
  0.6263091235552708  0.5095129558992864  0.6389367095901264
  0.6102738845417206  0.4684188548298999  0.3589489560719404
  0.5070823212157398  0.3971148344925552  0.3598934127392930
  0.4623840910646945  0.5714445572030625  0.3112888761765503
  0.5840952869650939  0.6845338313857612  0.5888458785355949
  0.4471100170890255  0.5910618636640385  0.6821223771203638
  0.3964914254595016  0.6713466146646401  0.6001140956069793
  0.3155299694012692  0.5043491230652820  0.5824875643621931
  0.3339400038600456  0.4822872314837367  0.4033440159700423
  0.3273203920188799  0.6003217028469708  0.4289537984199550
  0.4893515244172780  0.7137832518070352  0.4286355519435406
  0.5995032544493369  0.6606955849885768  0.4006914674016100
 
  0.00000000E+00  0.00000000E+00  0.00000000E+00
  0.00000000E+00  0.00000000E+00  0.00000000E+00
  0.00000000E+00  0.00000000E+00  0.00000000E+00
  0.00000000E+00  0.00000000E+00  0.00000000E+00
  0.00000000E+00  0.00000000E+00  0.00000000E+00
  0.00000000E+00  0.00000000E+00  0.00000000E+00
  0.00000000E+00  0.00000000E+00  0.00000000E+00
  0.00000000E+00  0.00000000E+00  0.00000000E+00
  0.00000000E+00  0.00000000E+00  0.00000000E+00
  0.00000000E+00  0.00000000E+00  0.00000000E+00
  0.00000000E+00  0.00000000E+00  0.00000000E+00
  0.00000000E+00  0.00000000E+00  0.00000000E+00
  0.00000000E+00  0.00000000E+00  0.00000000E+00
  0.00000000E+00  0.00000000E+00  0.00000000E+00
  0.00000000E+00  0.00000000E+00  0.00000000E+00
  0.00000000E+00  0.00000000E+00  0.00000000E+00
  0.00000000E+00  0.00000000E+00  0.00000000E+00
  0.00000000E+00  0.00000000E+00  0.00000000E+00
  0.00000000E+00  0.00000000E+00  0.00000000E+00
  0.00000000E+00  0.00000000E+00  0.00000000E+00
  0.00000000E+00  0.00000000E+00  0.00000000E+00
  0.00000000E+00  0.00000000E+00  0.00000000E+00
  0.00000000E+00  0.00000000E+00  0.00000000E+00
  0.00000000E+00  0.00000000E+00  0.00000000E+00
  0.00000000E+00  0.00000000E+00  0.00000000E+00
  0.00000000E+00  0.00000000E+00  0.00000000E+00
