SiGeH16 
1
15.000000     0.000000     0.000000
0.000000     15.000000     0.000000
0.000000     0.000000     15.000000
Si Ge H
7     3       16
Direct
1.467295     0.575013     1.346204      
1.325437     0.552080     1.415216      
0.555721     1.443261     1.361515      
0.541489     0.697255     1.416661      
1.346159     0.519655     0.569913      
1.434610     1.387915     0.585177      
1.420379     0.641907     0.640324      
0.576490     1.410813     0.516201      
0.562256     0.664858     0.571357      
0.650663     0.533089     0.586621      
1.386535     1.308867     0.539204      
1.448227     1.367235     0.685477      
0.633797     1.325427     0.526103      
0.742435     0.548009     0.541583      
0.663739     0.512045     0.686918      
0.647733     1.458408     1.317043      
0.507344     1.364074     1.316103      
1.453845     0.596025     1.245952      
0.610340     0.744089     0.617001      
1.434033     0.620591     0.740485      
1.363093     0.727265     0.630047      
1.254216     0.504797     0.614620      
1.277637     1.472620     1.369670      
1.268389     0.637663     1.405502      
1.483897     0.782473     1.406945      
0.633535     0.711765     1.372049      
