GeH16                                   
   1.00000000000000     
    20.0000000000000000    0.0000000000000000    0.0000000000000000
     0.0000000000000000   20.0000000000000000    0.0000000000000000
     0.0000000000000000    0.0000000000000000   20.0000000000000000
   Ge   H 
    10    16
Direct
  0.4750303599430163  0.5569387731501267  0.3814019376173211
  0.3659294445523886  0.5392372872775802  0.4347541255511699
  0.5431009265424611  0.4555262612150654  0.3934374758418083
  0.5321535740079302  0.6509351635595200  0.4358599292792240
  0.3816369620802744  0.5142573336644353  0.5538844755116128
  0.5592191566370145  0.4303386748352448  0.5124779539092428
  0.5482448209493013  0.6262138638617838  0.5549984603807619
  0.6161391692969652  0.5246335913314087  0.5666315171210705
  0.4499196481793932  0.4129414531143050  0.5655180603518403
  0.4389757529867284  0.6083539314083554  0.6079452379526884
  0.4136312552013440  0.3524856971688919  0.5323708251637940
  0.4594037247171882  0.3958080096542329  0.6409253223586389
  0.6025834800904692  0.3657380551815325  0.5199702058587105
  0.6861312923099532  0.5355914593606910  0.5341855455438334
  0.6277363724984207  0.5089223071038629  0.6420519114737286
  0.6121721393151220  0.4656176322584758  0.3588140732326201
  0.5079917032731802  0.3956105513804065  0.3581210279820488
  0.4648579003081527  0.5728251655489914  0.3055523128672433
  0.5846231669823891  0.6861592156374398  0.5895294025661586
  0.4483194977057108  0.5936845172952402  0.6838846982392569
  0.3956853907831470  0.6728579275619176  0.6019292120121451
  0.3120743654553860  0.5030170186526863  0.5877054910216492
  0.3285731654535163  0.4803862726549628  0.3999553862896384
  0.3217091989727326  0.6028575795597959  0.4265514810124209
  0.4900355134052943  0.7159667266688925  0.4276751926381080
  0.6010920183525135  0.6634955308941590  0.4017857382232616
 
  0.00000000E+00  0.00000000E+00  0.00000000E+00
  0.00000000E+00  0.00000000E+00  0.00000000E+00
  0.00000000E+00  0.00000000E+00  0.00000000E+00
  0.00000000E+00  0.00000000E+00  0.00000000E+00
  0.00000000E+00  0.00000000E+00  0.00000000E+00
  0.00000000E+00  0.00000000E+00  0.00000000E+00
  0.00000000E+00  0.00000000E+00  0.00000000E+00
  0.00000000E+00  0.00000000E+00  0.00000000E+00
  0.00000000E+00  0.00000000E+00  0.00000000E+00
  0.00000000E+00  0.00000000E+00  0.00000000E+00
  0.00000000E+00  0.00000000E+00  0.00000000E+00
  0.00000000E+00  0.00000000E+00  0.00000000E+00
  0.00000000E+00  0.00000000E+00  0.00000000E+00
  0.00000000E+00  0.00000000E+00  0.00000000E+00
  0.00000000E+00  0.00000000E+00  0.00000000E+00
  0.00000000E+00  0.00000000E+00  0.00000000E+00
  0.00000000E+00  0.00000000E+00  0.00000000E+00
  0.00000000E+00  0.00000000E+00  0.00000000E+00
  0.00000000E+00  0.00000000E+00  0.00000000E+00
  0.00000000E+00  0.00000000E+00  0.00000000E+00
  0.00000000E+00  0.00000000E+00  0.00000000E+00
  0.00000000E+00  0.00000000E+00  0.00000000E+00
  0.00000000E+00  0.00000000E+00  0.00000000E+00
  0.00000000E+00  0.00000000E+00  0.00000000E+00
  0.00000000E+00  0.00000000E+00  0.00000000E+00
  0.00000000E+00  0.00000000E+00  0.00000000E+00
