SiH16                                   
   1.00000000000000     
    20.0000000000000000    0.0000000000000000    0.0000000000000000
     0.0000000000000000   20.0000000000000000    0.0000000000000000
     0.0000000000000000    0.0000000000000000   20.0000000000000000
   Si   H 
    10    16
Direct
  0.4757042040675756  0.5558889706483253  0.3864328463886604
  0.3710733569041567  0.5389472633265054  0.4374664912838700
  0.5409597226052820  0.4586705175333203  0.3978497538961775
  0.5304579431537146  0.6460455366495764  0.4385277991664662
  0.3862537554109193  0.5150042532184874  0.5516419097249685
  0.5563547069843493  0.4346240699790913  0.5119769943773095
  0.5458379113176176  0.6222397619516922  0.5527076461736375
  0.6109998845252512  0.5249349574425547  0.5639151792960428
  0.4516157897017126  0.4178321654074283  0.5628435798720679
  0.4411130401920100  0.6052140740592096  0.6035305138158253
  0.4167139355797858  0.3598338865069134  0.5306623121138572
  0.4608959346711661  0.4016456256525304  0.6354360331152962
  0.5979976868844491  0.3725738051749026  0.5191832259349544
  0.6781754580407205  0.5355364823227875  0.5324077957751809
  0.6218100357357818  0.5097843799770360  0.6365194781956335
  0.6074638955787494  0.4686491283457234  0.3647538492071019
  0.5069149115429809  0.4010587901778083  0.3640936784075375
  0.4659348058355509  0.5711539508286249  0.3135774912571401
  0.5807902616095821  0.6798090401238199  0.5858803335461630
  0.4502829928387891  0.5908283873010646  0.6765149556322317
  0.3994715191533917  0.6672299416108299  0.5974004432117711
  0.3194378662095029  0.5041977409852135  0.5841260651266073
  0.3354006577723579  0.4821054472278101  0.4040870848606221
  0.3287639060193600  0.6003319932695490  0.4297433838717978
  0.4896782350768957  0.7084563788746844  0.4308101484338115
  0.5968675825883407  0.6578034514045148  0.4058280073152652
 
  0.00000000E+00  0.00000000E+00  0.00000000E+00
  0.00000000E+00  0.00000000E+00  0.00000000E+00
  0.00000000E+00  0.00000000E+00  0.00000000E+00
  0.00000000E+00  0.00000000E+00  0.00000000E+00
  0.00000000E+00  0.00000000E+00  0.00000000E+00
  0.00000000E+00  0.00000000E+00  0.00000000E+00
  0.00000000E+00  0.00000000E+00  0.00000000E+00
  0.00000000E+00  0.00000000E+00  0.00000000E+00
  0.00000000E+00  0.00000000E+00  0.00000000E+00
  0.00000000E+00  0.00000000E+00  0.00000000E+00
  0.00000000E+00  0.00000000E+00  0.00000000E+00
  0.00000000E+00  0.00000000E+00  0.00000000E+00
  0.00000000E+00  0.00000000E+00  0.00000000E+00
  0.00000000E+00  0.00000000E+00  0.00000000E+00
  0.00000000E+00  0.00000000E+00  0.00000000E+00
  0.00000000E+00  0.00000000E+00  0.00000000E+00
  0.00000000E+00  0.00000000E+00  0.00000000E+00
  0.00000000E+00  0.00000000E+00  0.00000000E+00
  0.00000000E+00  0.00000000E+00  0.00000000E+00
  0.00000000E+00  0.00000000E+00  0.00000000E+00
  0.00000000E+00  0.00000000E+00  0.00000000E+00
  0.00000000E+00  0.00000000E+00  0.00000000E+00
  0.00000000E+00  0.00000000E+00  0.00000000E+00
  0.00000000E+00  0.00000000E+00  0.00000000E+00
  0.00000000E+00  0.00000000E+00  0.00000000E+00
  0.00000000E+00  0.00000000E+00  0.00000000E+00
