GeH16                                   
   1.00000000000000     
    20.0000000000000000    0.0000000000000000    0.0000000000000000
     0.0000000000000000   20.0000000000000000    0.0000000000000000
     0.0000000000000000    0.0000000000000000   20.0000000000000000
   Ge   H 
    10    16
Direct
  0.4750303599430197  0.5569387731501294  0.3814019376173192
  0.3659294445523855  0.5392372872775795  0.4347541255511729
  0.5431009265424578  0.4555262612150628  0.3934374758418073
  0.5321535740079284  0.6509351635595166  0.4358599292792249
  0.3816369620802718  0.5142573336644318  0.5538844755116159
  0.5592191566370133  0.4303386748352480  0.5124779539092401
  0.5482448209493000  0.6262138638617856  0.5549984603807587
  0.6161391692969644  0.5246335913314084  0.5666315171210670
  0.4499196481793959  0.4129414531143070  0.5655180603518417
  0.4389757529867282  0.6083539314083524  0.6079452379526913
  0.4136312552013450  0.3524856971688948  0.5323708251637953
  0.4594037247171912  0.3958080096542318  0.6409253223586404
  0.6025834800904661  0.3657380551815308  0.5199702058587121
  0.6861312923099518  0.5355914593606883  0.5341855455438349
  0.6277363724984184  0.5089223071038660  0.6420519114737289
  0.6121721393151205  0.4656176322584784  0.3588140732326224
  0.5079917032731771  0.3956105513804076  0.3581210279820510
  0.4648579003081537  0.5728251655489913  0.3055523128672419
  0.5846231669823894  0.6861592156374385  0.5895294025661570
  0.4483194977057110  0.5936845172952374  0.6838846982392539
  0.3956853907831501  0.6728579275619211  0.6019292120121449
  0.3120743654553877  0.5030170186526846  0.5877054910216515
  0.3285731654535198  0.4803862726549610  0.3999553862896406
  0.3217091989727336  0.6028575795597959  0.4265514810124245
  0.4900355134052958  0.7159667266688956  0.4276751926381053
  0.6010920183525101  0.6634955308941599  0.4007857382232606
 
  0.00000000E+00  0.00000000E+00  0.00000000E+00
  0.00000000E+00  0.00000000E+00  0.00000000E+00
  0.00000000E+00  0.00000000E+00  0.00000000E+00
  0.00000000E+00  0.00000000E+00  0.00000000E+00
  0.00000000E+00  0.00000000E+00  0.00000000E+00
  0.00000000E+00  0.00000000E+00  0.00000000E+00
  0.00000000E+00  0.00000000E+00  0.00000000E+00
  0.00000000E+00  0.00000000E+00  0.00000000E+00
  0.00000000E+00  0.00000000E+00  0.00000000E+00
  0.00000000E+00  0.00000000E+00  0.00000000E+00
  0.00000000E+00  0.00000000E+00  0.00000000E+00
  0.00000000E+00  0.00000000E+00  0.00000000E+00
  0.00000000E+00  0.00000000E+00  0.00000000E+00
  0.00000000E+00  0.00000000E+00  0.00000000E+00
  0.00000000E+00  0.00000000E+00  0.00000000E+00
  0.00000000E+00  0.00000000E+00  0.00000000E+00
  0.00000000E+00  0.00000000E+00  0.00000000E+00
  0.00000000E+00  0.00000000E+00  0.00000000E+00
  0.00000000E+00  0.00000000E+00  0.00000000E+00
  0.00000000E+00  0.00000000E+00  0.00000000E+00
  0.00000000E+00  0.00000000E+00  0.00000000E+00
  0.00000000E+00  0.00000000E+00  0.00000000E+00
  0.00000000E+00  0.00000000E+00  0.00000000E+00
  0.00000000E+00  0.00000000E+00  0.00000000E+00
  0.00000000E+00  0.00000000E+00  0.00000000E+00
  0.00000000E+00  0.00000000E+00  0.00000000E+00
