SiGeH16                                 
   1.00000000000000     
    20.0000000000000000    0.0000000000000000    0.0000000000000000
     0.0000000000000000   20.0000000000000000    0.0000000000000000
     0.0000000000000000    0.0000000000000000   20.0000000000000000
   Si   Ge   H 
     8     2    16
Direct
  0.4756337919233431  0.5558794339482489  0.3861350151575493
  0.3709557852343579  0.5395448719168741  0.4374753620259568
  0.5414685244333981  0.4589640344123183  0.3977128044873268
  0.5303809863410862  0.6468473482331305  0.4365301601801335
  0.3842565324315359  0.5163518764429185  0.5519717942372324
  0.5586006410382751  0.4339686758019070  0.5113181389678942
  0.6130858308766278  0.5235312495959548  0.5642746617775742
  0.4390233560182253  0.6057795139313384  0.6048673773200335
  0.5461797233811438  0.6227560994701378  0.5531457410198044
  0.4515036142561755  0.4173400450272382  0.5633682284441264
  0.4152256871723878  0.3569469904991323  0.5301957950669234
  0.4608407091479592  0.3999397432630545  0.6386890555434022
  0.5994499841170722  0.3712717868176014  0.5177349031016618
  0.6803113673320098  0.5351222803072133  0.5332847927876827
  0.6234643263119892  0.5081879087768044  0.6368553045308616
  0.6073886840017835  0.4691894050630481  0.3635005290986300
  0.5070952415226699  0.4013141493876162  0.3643426106892136
  0.4652281452716807  0.5698972510857132  0.3130688536758441
  0.5825148230535362  0.6826350903464160  0.5876619157195435
  0.4482999777441066  0.5909651405313525  0.6777079714431196
  0.3982836380105752  0.6683919240087164  0.5990516968665887
  0.3171235609408782  0.5046726643239765  0.5835527242061787
  0.3355897726804073  0.4823638416182661  0.4043348151104666
  0.3287453796496180  0.6008482165706184  0.4284839819031063
  0.4895507419724865  0.7091835319330784  0.4288214525897658
  0.5967691751366502  0.6585069266873518  0.4028313140493771
 
  0.00000000E+00  0.00000000E+00  0.00000000E+00
  0.00000000E+00  0.00000000E+00  0.00000000E+00
  0.00000000E+00  0.00000000E+00  0.00000000E+00
  0.00000000E+00  0.00000000E+00  0.00000000E+00
  0.00000000E+00  0.00000000E+00  0.00000000E+00
  0.00000000E+00  0.00000000E+00  0.00000000E+00
  0.00000000E+00  0.00000000E+00  0.00000000E+00
  0.00000000E+00  0.00000000E+00  0.00000000E+00
  0.00000000E+00  0.00000000E+00  0.00000000E+00
  0.00000000E+00  0.00000000E+00  0.00000000E+00
  0.00000000E+00  0.00000000E+00  0.00000000E+00
  0.00000000E+00  0.00000000E+00  0.00000000E+00
  0.00000000E+00  0.00000000E+00  0.00000000E+00
  0.00000000E+00  0.00000000E+00  0.00000000E+00
  0.00000000E+00  0.00000000E+00  0.00000000E+00
  0.00000000E+00  0.00000000E+00  0.00000000E+00
  0.00000000E+00  0.00000000E+00  0.00000000E+00
  0.00000000E+00  0.00000000E+00  0.00000000E+00
  0.00000000E+00  0.00000000E+00  0.00000000E+00
  0.00000000E+00  0.00000000E+00  0.00000000E+00
  0.00000000E+00  0.00000000E+00  0.00000000E+00
  0.00000000E+00  0.00000000E+00  0.00000000E+00
  0.00000000E+00  0.00000000E+00  0.00000000E+00
  0.00000000E+00  0.00000000E+00  0.00000000E+00
  0.00000000E+00  0.00000000E+00  0.00000000E+00
  0.00000000E+00  0.00000000E+00  0.00000000E+00
