SiGeH16                                 
   1.00000000000000     
    20.0000000000000000    0.0000000000000000    0.0000000000000000
     0.0000000000000000   20.0000000000000000    0.0000000000000000
     0.0000000000000000    0.0000000000000000   20.0000000000000000
   Si   Ge   H 
     7     3    16
Direct
  0.4757355135526123  0.5559473282444589  0.3864646233079210
  0.3709786376979901  0.5388030013769740  0.4373091467353818
  0.5408449437691615  0.4585408876967503  0.3976990684922935
  0.5305692474078691  0.6475655345186948  0.4358959057425435
  0.3847275990974091  0.5134971472064649  0.5512410338080947
  0.5559500090059807  0.4325980790128383  0.5113138399804541
  0.4512271831650219  0.4171071527944514  0.5626584397864156
  0.5474995205986388  0.6257298367162801  0.5527427635531096
  0.6139670561834309  0.5233082186967927  0.5647146083284292
  0.4385323303033252  0.6062014209995391  0.6056271131897240
  0.4162982917622809  0.3587454276431868  0.5310645707275473
  0.4607436358577885  0.4013835530555459  0.6353294231966061
  0.5965812313778200  0.3697753973087322  0.5178356309981187
  0.6841376712796957  0.5332891639089041  0.5323881860159657
  0.6251252833969663  0.5077948151985099  0.6402197488736233
  0.6074274056600906  0.4685661987748640  0.3648058155200604
  0.5065476575033956  0.4016001080878642  0.3630552663580400
  0.4653926818411387  0.5701134422292351  0.3133773125572034
  0.5838457357419483  0.6856103922670449  0.5873088687123074
  0.4483107031224838  0.5913434586997648  0.6814552488447962
  0.3944583547101733  0.6701854681693964  0.5999584912787412
  0.3176660762912724  0.5015605108484908  0.5828692072535560
  0.3356231890028608  0.4823664835346833  0.4029055583022120
  0.3287307581871984  0.6002406929131153  0.4297946074507763
  0.4894151788783520  0.7095995509582478  0.4274460697672899
  0.5966341046050886  0.6589267291391752  0.4024364512187865
 
  0.00000000E+00  0.00000000E+00  0.00000000E+00
  0.00000000E+00  0.00000000E+00  0.00000000E+00
  0.00000000E+00  0.00000000E+00  0.00000000E+00
  0.00000000E+00  0.00000000E+00  0.00000000E+00
  0.00000000E+00  0.00000000E+00  0.00000000E+00
  0.00000000E+00  0.00000000E+00  0.00000000E+00
  0.00000000E+00  0.00000000E+00  0.00000000E+00
  0.00000000E+00  0.00000000E+00  0.00000000E+00
  0.00000000E+00  0.00000000E+00  0.00000000E+00
  0.00000000E+00  0.00000000E+00  0.00000000E+00
  0.00000000E+00  0.00000000E+00  0.00000000E+00
  0.00000000E+00  0.00000000E+00  0.00000000E+00
  0.00000000E+00  0.00000000E+00  0.00000000E+00
  0.00000000E+00  0.00000000E+00  0.00000000E+00
  0.00000000E+00  0.00000000E+00  0.00000000E+00
  0.00000000E+00  0.00000000E+00  0.00000000E+00
  0.00000000E+00  0.00000000E+00  0.00000000E+00
  0.00000000E+00  0.00000000E+00  0.00000000E+00
  0.00000000E+00  0.00000000E+00  0.00000000E+00
  0.00000000E+00  0.00000000E+00  0.00000000E+00
  0.00000000E+00  0.00000000E+00  0.00000000E+00
  0.00000000E+00  0.00000000E+00  0.00000000E+00
  0.00000000E+00  0.00000000E+00  0.00000000E+00
  0.00000000E+00  0.00000000E+00  0.00000000E+00
  0.00000000E+00  0.00000000E+00  0.00000000E+00
  0.00000000E+00  0.00000000E+00  0.00000000E+00
