SiGeH16                                 
   1.00000000000000     
    20.0000000000000000    0.0000000000000000    0.0000000000000000
     0.0000000000000000   20.0000000000000000    0.0000000000000000
     0.0000000000000000    0.0000000000000000   20.0000000000000000
   Si   Ge   H 
     7     3    16
Direct
  0.4756766894784974  0.5560052008686185  0.3858726392184906
  0.3714789985311171  0.5389262979819023  0.4376803954017774
  0.5408414876664978  0.4584924055968642  0.3954144054441642
  0.5302691051033435  0.6471896359326337  0.4363791743372971
  0.3857616852226258  0.5149174366024809  0.5519298962296588
  0.4496324208707492  0.4168110482867533  0.5638527543597647
  0.4390571196647386  0.6055141241776596  0.6048273048665536
  0.5566271347878029  0.4315468475740900  0.5113669313566191
  0.5457658351656391  0.6252956243582020  0.5534279416833670
  0.6148326240395292  0.5247079248579354  0.5659309149696696
  0.4137845147874017  0.3591343766793997  0.5321484138877324
  0.4591318247034764  0.4008365808781207  0.6364425482281462
  0.5991635514580977  0.3664448170494765  0.5182964522193743
  0.6846751671865263  0.5357105114026837  0.5332605017767236
  0.6261500466299950  0.5089698272183654  0.6413670656191925
  0.6074244180993631  0.4686276693105356  0.3625728161315607
  0.5065846628081871  0.4015447983640925  0.3607735717191431
  0.4646496889438154  0.5711790820928400  0.3131292142863629
  0.5812555423112400  0.6858465483189491  0.5876263069214502
  0.4484775197317816  0.5909689852854072  0.6777277404383852
  0.3965313727100792  0.6669459626684784  0.5989814210941731
  0.3183411421507714  0.5043155180579433  0.5833208954633591
  0.3356893567401684  0.4821833576912695  0.4042643597682698
  0.3290628347747173  0.6002245628225964  0.4298780190078801
  0.4893275935252106  0.7093430478876428  0.4275985672270153
  0.5967776629086217  0.6587178080350782  0.4028467483438666
 
  0.00000000E+00  0.00000000E+00  0.00000000E+00
  0.00000000E+00  0.00000000E+00  0.00000000E+00
  0.00000000E+00  0.00000000E+00  0.00000000E+00
  0.00000000E+00  0.00000000E+00  0.00000000E+00
  0.00000000E+00  0.00000000E+00  0.00000000E+00
  0.00000000E+00  0.00000000E+00  0.00000000E+00
  0.00000000E+00  0.00000000E+00  0.00000000E+00
  0.00000000E+00  0.00000000E+00  0.00000000E+00
  0.00000000E+00  0.00000000E+00  0.00000000E+00
  0.00000000E+00  0.00000000E+00  0.00000000E+00
  0.00000000E+00  0.00000000E+00  0.00000000E+00
  0.00000000E+00  0.00000000E+00  0.00000000E+00
  0.00000000E+00  0.00000000E+00  0.00000000E+00
  0.00000000E+00  0.00000000E+00  0.00000000E+00
  0.00000000E+00  0.00000000E+00  0.00000000E+00
  0.00000000E+00  0.00000000E+00  0.00000000E+00
  0.00000000E+00  0.00000000E+00  0.00000000E+00
  0.00000000E+00  0.00000000E+00  0.00000000E+00
  0.00000000E+00  0.00000000E+00  0.00000000E+00
  0.00000000E+00  0.00000000E+00  0.00000000E+00
  0.00000000E+00  0.00000000E+00  0.00000000E+00
  0.00000000E+00  0.00000000E+00  0.00000000E+00
  0.00000000E+00  0.00000000E+00  0.00000000E+00
  0.00000000E+00  0.00000000E+00  0.00000000E+00
  0.00000000E+00  0.00000000E+00  0.00000000E+00
  0.00000000E+00  0.00000000E+00  0.00000000E+00
