SiGeH16                                 
   1.00000000000000     
    20.0000000000000000    0.0000000000000000    0.0000000000000000
     0.0000000000000000   20.0000000000000000    0.0000000000000000
     0.0000000000000000    0.0000000000000000   20.0000000000000000
   Si   Ge   H 
     8     2    16
Direct
  0.4755782426821826  0.5560417892827315  0.3856744208675657
  0.3713906902344565  0.5389303799336861  0.4376309635203286
  0.5410102278681254  0.4588681855519794  0.3958274036160163
  0.5304827500027623  0.6467008499503303  0.4365983716257278
  0.3855412853728052  0.5148968039722228  0.5519551519700021
  0.6138539931029746  0.5247699139877237  0.5654230088851301
  0.4499812270826926  0.4172666949741269  0.5639281803541942
  0.4394521843253413  0.6051048054878607  0.6047133409170918
  0.5571149040575893  0.4334883813679537  0.5121125901856493
  0.5464706277528775  0.6232926443378380  0.5533129905065171
  0.4151603882902289  0.3593416403899121  0.5316042802417600
  0.4592934135670473  0.4009813532460156  0.6364775956701288
  0.5996134590112362  0.3683693943504170  0.5190078600614131
  0.6808802349313215  0.5353998669870771  0.5337168207217607
  0.6244057237074594  0.5096091803971896  0.6380104411153316
  0.6075149719887630  0.4687380315347496  0.3627372277336761
  0.5068846406840640  0.4012614154644744  0.3622201282838763
  0.4646604058543052  0.5712213870090929  0.3129255702301157
  0.5819188351664704  0.6838657270810583  0.5874924850632274
  0.4486528853207797  0.5908367275473592  0.6777002497660715
  0.3979016873653114  0.6671263940034835  0.5984242355987578
  0.3181783200171329  0.5042788897006564  0.5834409549374910
  0.3355713299521683  0.4822178141618670  0.4042078119301828
  0.3289483330262578  0.6001996896184916  0.4298079595714486
  0.4896266737172673  0.7090367565075388  0.4290157663048863
  0.5968825649183729  0.6585552831541680  0.4039511903216469
 
  0.00000000E+00  0.00000000E+00  0.00000000E+00
  0.00000000E+00  0.00000000E+00  0.00000000E+00
  0.00000000E+00  0.00000000E+00  0.00000000E+00
  0.00000000E+00  0.00000000E+00  0.00000000E+00
  0.00000000E+00  0.00000000E+00  0.00000000E+00
  0.00000000E+00  0.00000000E+00  0.00000000E+00
  0.00000000E+00  0.00000000E+00  0.00000000E+00
  0.00000000E+00  0.00000000E+00  0.00000000E+00
  0.00000000E+00  0.00000000E+00  0.00000000E+00
  0.00000000E+00  0.00000000E+00  0.00000000E+00
  0.00000000E+00  0.00000000E+00  0.00000000E+00
  0.00000000E+00  0.00000000E+00  0.00000000E+00
  0.00000000E+00  0.00000000E+00  0.00000000E+00
  0.00000000E+00  0.00000000E+00  0.00000000E+00
  0.00000000E+00  0.00000000E+00  0.00000000E+00
  0.00000000E+00  0.00000000E+00  0.00000000E+00
  0.00000000E+00  0.00000000E+00  0.00000000E+00
  0.00000000E+00  0.00000000E+00  0.00000000E+00
  0.00000000E+00  0.00000000E+00  0.00000000E+00
  0.00000000E+00  0.00000000E+00  0.00000000E+00
  0.00000000E+00  0.00000000E+00  0.00000000E+00
  0.00000000E+00  0.00000000E+00  0.00000000E+00
  0.00000000E+00  0.00000000E+00  0.00000000E+00
  0.00000000E+00  0.00000000E+00  0.00000000E+00
  0.00000000E+00  0.00000000E+00  0.00000000E+00
  0.00000000E+00  0.00000000E+00  0.00000000E+00
