SiGeH16                                 
   1.00000000000000     
    20.0000000000000000    0.0000000000000000    0.0000000000000000
     0.0000000000000000   20.0000000000000000    0.0000000000000000
     0.0000000000000000    0.0000000000000000   20.0000000000000000
   Si   Ge   H 
     7     3    16
Direct
  0.4756766894784976  0.5560052008686156  0.3858726392184911
  0.3714789985311139  0.5389262979819021  0.4376803954017796
  0.5408414876664942  0.4584924055968636  0.3954144054441618
  0.5302691051033452  0.6471896359326353  0.4363791743372998
  0.3857616852226250  0.5149174366024806  0.5519298962296619
  0.4496324208707492  0.4168110482867554  0.5638527543597655
  0.4390571196647385  0.6055141241776579  0.6048273048665531
  0.5566271347878023  0.4315468475740891  0.5113669313566156
  0.5457658351656389  0.6252956243582055  0.5534279416833695
  0.6148326240395303  0.5247079248579335  0.5659309149696667
  0.4137845147874005  0.3591343766794031  0.5321484138877357
  0.4591318247034792  0.4008365808781180  0.6364425482281463
  0.5991635514580980  0.3664448170494745  0.5182964522193739
  0.6846751671865297  0.5357105114026840  0.5332605017767267
  0.6261500466299924  0.5089698272183670  0.6413670656191922
  0.6074244180993650  0.4686276693105322  0.3625728161315593
  0.5065846628081895  0.4015447983640903  0.3607735717191434
  0.4646496889438131  0.5711790820928369  0.3131292142863654
  0.5812555423112398  0.6858465483189503  0.5876263069214477
  0.4484775197317813  0.5909689852854058  0.6777277404383829
  0.3965313727100784  0.6669459626684809  0.5989814210941756
  0.3183411421507744  0.5043155180579454  0.5833208954633576
  0.3356893567401714  0.4821833576912677  0.4042643597682712
  0.3290628347747169  0.6002245628225930  0.4298780190078770
  0.4893275935252091  0.7093430478876409  0.4275985672270143
  0.5967776629086201  0.6587178080350763  0.4038467483438630
 
  0.00000000E+00  0.00000000E+00  0.00000000E+00
  0.00000000E+00  0.00000000E+00  0.00000000E+00
  0.00000000E+00  0.00000000E+00  0.00000000E+00
  0.00000000E+00  0.00000000E+00  0.00000000E+00
  0.00000000E+00  0.00000000E+00  0.00000000E+00
  0.00000000E+00  0.00000000E+00  0.00000000E+00
  0.00000000E+00  0.00000000E+00  0.00000000E+00
  0.00000000E+00  0.00000000E+00  0.00000000E+00
  0.00000000E+00  0.00000000E+00  0.00000000E+00
  0.00000000E+00  0.00000000E+00  0.00000000E+00
  0.00000000E+00  0.00000000E+00  0.00000000E+00
  0.00000000E+00  0.00000000E+00  0.00000000E+00
  0.00000000E+00  0.00000000E+00  0.00000000E+00
  0.00000000E+00  0.00000000E+00  0.00000000E+00
  0.00000000E+00  0.00000000E+00  0.00000000E+00
  0.00000000E+00  0.00000000E+00  0.00000000E+00
  0.00000000E+00  0.00000000E+00  0.00000000E+00
  0.00000000E+00  0.00000000E+00  0.00000000E+00
  0.00000000E+00  0.00000000E+00  0.00000000E+00
  0.00000000E+00  0.00000000E+00  0.00000000E+00
  0.00000000E+00  0.00000000E+00  0.00000000E+00
  0.00000000E+00  0.00000000E+00  0.00000000E+00
  0.00000000E+00  0.00000000E+00  0.00000000E+00
  0.00000000E+00  0.00000000E+00  0.00000000E+00
  0.00000000E+00  0.00000000E+00  0.00000000E+00
  0.00000000E+00  0.00000000E+00  0.00000000E+00
