SiGeH16                                 
   1.00000000000000     
    20.0000000000000000    0.0000000000000000    0.0000000000000000
     0.0000000000000000   20.0000000000000000    0.0000000000000000
     0.0000000000000000    0.0000000000000000   20.0000000000000000
   Si   Ge   H 
     1     9    16
Direct
  0.3667749657246304  0.5392002120906767  0.4351977632508124
  0.4734889099470792  0.5565604973517537  0.3827392397115759
  0.5425601987368438  0.4556888823874345  0.3937405680644304
  0.5316393062704137  0.6506020787712643  0.4360510189151938
  0.3819055022674434  0.5147129714641991  0.5518731786742066
  0.5593713136438296  0.4301378322794420  0.5125065592833096
  0.5483740269952264  0.6263960687804371  0.5551091765636400
  0.6161299276145940  0.5246323226593930  0.5666227986140058
  0.4498173916371400  0.4133062398138563  0.5649944685949819
  0.4389000126182836  0.6082269122332136  0.6073207975618615
  0.4136561597315449  0.3526087459040710  0.5321766461547668
  0.4586438038479486  0.3968948068394056  0.6406304841212034
  0.6027795778456237  0.3655619846793527  0.5200368464073506
  0.6861470553003457  0.5355921385298359  0.5341821457263265
  0.6277431130430742  0.5089170827036398  0.6420758381653826
  0.6112859882877331  0.4666551697090640  0.3587488656820739
  0.5078301642764558  0.3956465283447557  0.3582801912474025
  0.4634739886439405  0.5724527846664671  0.3068735604937416
  0.5848023957439707  0.6863122438247018  0.5896665046033718
  0.4476815845682296  0.5927392452543501  0.6831572290708365
  0.3957210583665258  0.6728236584412670  0.6017110815264459
  0.3124175421376236  0.5034474197423719  0.5858285863039114
  0.3311159356360207  0.4824166026044097  0.4018441751913784
  0.3245025593306110  0.6005256413662252  0.4274770489453772
  0.4898867209479221  0.7158486750712711  0.4278002347484602
  0.6003207968369466  0.6624932544871527  0.4002719923779429
 
  0.00000000E+00  0.00000000E+00  0.00000000E+00
  0.00000000E+00  0.00000000E+00  0.00000000E+00
  0.00000000E+00  0.00000000E+00  0.00000000E+00
  0.00000000E+00  0.00000000E+00  0.00000000E+00
  0.00000000E+00  0.00000000E+00  0.00000000E+00
  0.00000000E+00  0.00000000E+00  0.00000000E+00
  0.00000000E+00  0.00000000E+00  0.00000000E+00
  0.00000000E+00  0.00000000E+00  0.00000000E+00
  0.00000000E+00  0.00000000E+00  0.00000000E+00
  0.00000000E+00  0.00000000E+00  0.00000000E+00
  0.00000000E+00  0.00000000E+00  0.00000000E+00
  0.00000000E+00  0.00000000E+00  0.00000000E+00
  0.00000000E+00  0.00000000E+00  0.00000000E+00
  0.00000000E+00  0.00000000E+00  0.00000000E+00
  0.00000000E+00  0.00000000E+00  0.00000000E+00
  0.00000000E+00  0.00000000E+00  0.00000000E+00
  0.00000000E+00  0.00000000E+00  0.00000000E+00
  0.00000000E+00  0.00000000E+00  0.00000000E+00
  0.00000000E+00  0.00000000E+00  0.00000000E+00
  0.00000000E+00  0.00000000E+00  0.00000000E+00
  0.00000000E+00  0.00000000E+00  0.00000000E+00
  0.00000000E+00  0.00000000E+00  0.00000000E+00
  0.00000000E+00  0.00000000E+00  0.00000000E+00
  0.00000000E+00  0.00000000E+00  0.00000000E+00
  0.00000000E+00  0.00000000E+00  0.00000000E+00
  0.00000000E+00  0.00000000E+00  0.00000000E+00
