SiGeH16                                 
   1.00000000000000     
    20.0000000000000000    0.0000000000000000    0.0000000000000000
     0.0000000000000000   20.0000000000000000    0.0000000000000000
     0.0000000000000000    0.0000000000000000   20.0000000000000000
   Si   Ge   H 
     7     3    16
Direct
  0.4755832471805448  0.5559098623335430  0.3863823000044775
  0.3706130520116915  0.5392378243613365  0.4370872297498067
  0.5414385345600934  0.4590017218324292  0.3977590895318670
  0.5307102570974678  0.6470619240596776  0.4361534724942331
  0.3829394943078768  0.5148773851237962  0.5513873514754337
  0.5584705625531967  0.4341298957634052  0.5114021035085798
  0.6136193425526386  0.5234375824167685  0.5642350319152811
  0.5481120359022640  0.6234951463083362  0.5526168856241114
  0.4512996030947178  0.4167721425973667  0.5632284031680541
  0.4386691613400231  0.6063649339352395  0.6056161746272366
  0.4160033781075470  0.3557067702806833  0.5301848778752571
  0.4606644181483190  0.3997366537255331  0.6386303816623666
  0.5993354538957334  0.3714501532006338  0.5178414211791207
  0.6810870658889669  0.5339018870804111  0.5333304430645072
  0.6236890074751287  0.5082197127451593  0.6368812952320226
  0.6073636460025256  0.4692310757475227  0.3635390674022929
  0.5070839545950392  0.4013419985360116  0.3643795526635145
  0.4651624957557274  0.5699529750899615  0.3133101975347543
  0.5844470392808603  0.6833733867158713  0.5871543383582249
  0.4481763645372467  0.5913741503046452  0.6814273178475290
  0.3963770106757210  0.6715153920550208  0.6000056509182272
  0.3157949362984311  0.5030856386031459  0.5828544495929933
  0.3354613757337290  0.4825152488202207  0.4029162253172487
  0.3285619705509362  0.6006952156390355  0.4284379561559817
  0.4897001762481707  0.7093124230247838  0.4287403246212875
  0.5966064162053968  0.6586988996994734  0.4014154584755806
 
  0.00000000E+00  0.00000000E+00  0.00000000E+00
  0.00000000E+00  0.00000000E+00  0.00000000E+00
  0.00000000E+00  0.00000000E+00  0.00000000E+00
  0.00000000E+00  0.00000000E+00  0.00000000E+00
  0.00000000E+00  0.00000000E+00  0.00000000E+00
  0.00000000E+00  0.00000000E+00  0.00000000E+00
  0.00000000E+00  0.00000000E+00  0.00000000E+00
  0.00000000E+00  0.00000000E+00  0.00000000E+00
  0.00000000E+00  0.00000000E+00  0.00000000E+00
  0.00000000E+00  0.00000000E+00  0.00000000E+00
  0.00000000E+00  0.00000000E+00  0.00000000E+00
  0.00000000E+00  0.00000000E+00  0.00000000E+00
  0.00000000E+00  0.00000000E+00  0.00000000E+00
  0.00000000E+00  0.00000000E+00  0.00000000E+00
  0.00000000E+00  0.00000000E+00  0.00000000E+00
  0.00000000E+00  0.00000000E+00  0.00000000E+00
  0.00000000E+00  0.00000000E+00  0.00000000E+00
  0.00000000E+00  0.00000000E+00  0.00000000E+00
  0.00000000E+00  0.00000000E+00  0.00000000E+00
  0.00000000E+00  0.00000000E+00  0.00000000E+00
  0.00000000E+00  0.00000000E+00  0.00000000E+00
  0.00000000E+00  0.00000000E+00  0.00000000E+00
  0.00000000E+00  0.00000000E+00  0.00000000E+00
  0.00000000E+00  0.00000000E+00  0.00000000E+00
  0.00000000E+00  0.00000000E+00  0.00000000E+00
  0.00000000E+00  0.00000000E+00  0.00000000E+00
