SiGeH16                                 
   1.00000000000000     
    20.0000000000000000    0.0000000000000000    0.0000000000000000
     0.0000000000000000   20.0000000000000000    0.0000000000000000
     0.0000000000000000    0.0000000000000000   20.0000000000000000
   Si   Ge   H 
     7     3    16
Direct
  0.4757355135526140  0.5559473282444571  0.3864646233079227
  0.3709786376979878  0.5388030013769765  0.4373091467353802
  0.5408449437691587  0.4585408876967492  0.3976990684922939
  0.5305692474078683  0.6475655345186979  0.4358959057425409
  0.3847275990974097  0.5134971472064649  0.5512410338080969
  0.5559500090059828  0.4325980790128412  0.5113138399804527
  0.4512271831650239  0.4171071527944505  0.5626584397864178
  0.5474995205986417  0.6257298367162818  0.5527427635531126
  0.6139670561834336  0.5233082186967906  0.5647146083284298
  0.4385323303033246  0.6062014209995397  0.6056271131897262
  0.4162982917622813  0.3587454276431856  0.5310645707275441
  0.4607436358577885  0.4013835530555454  0.6353294231966089
  0.5965812313778187  0.3697753973087288  0.5178356309981211
  0.6841376712796929  0.5332891639089041  0.5323881860159645
  0.6251252833969687  0.5077948151985083  0.6402197488736263
  0.6074274056600899  0.4685661987748659  0.3648058155200573
  0.5065476575033969  0.4016001080878624  0.3630552663580389
  0.4653926818411378  0.5701134422292355  0.3133773125572006
  0.5838457357419458  0.6856103922670442  0.5873088687123058
  0.4483107031224804  0.5913434586997681  0.6814552488447987
  0.3944583547101743  0.6701854681693931  0.5999584912787412
  0.3176660762912746  0.5015605108484920  0.5828692072535588
  0.3356231890028596  0.4823664835346833  0.4029055583022085
  0.3287307581871985  0.6002406929131183  0.4297946074507735
  0.4894151788783532  0.7095995509582451  0.4274460697672922
  0.5966341046050871  0.6589267291391749  0.4014364512187831
 
  0.00000000E+00  0.00000000E+00  0.00000000E+00
  0.00000000E+00  0.00000000E+00  0.00000000E+00
  0.00000000E+00  0.00000000E+00  0.00000000E+00
  0.00000000E+00  0.00000000E+00  0.00000000E+00
  0.00000000E+00  0.00000000E+00  0.00000000E+00
  0.00000000E+00  0.00000000E+00  0.00000000E+00
  0.00000000E+00  0.00000000E+00  0.00000000E+00
  0.00000000E+00  0.00000000E+00  0.00000000E+00
  0.00000000E+00  0.00000000E+00  0.00000000E+00
  0.00000000E+00  0.00000000E+00  0.00000000E+00
  0.00000000E+00  0.00000000E+00  0.00000000E+00
  0.00000000E+00  0.00000000E+00  0.00000000E+00
  0.00000000E+00  0.00000000E+00  0.00000000E+00
  0.00000000E+00  0.00000000E+00  0.00000000E+00
  0.00000000E+00  0.00000000E+00  0.00000000E+00
  0.00000000E+00  0.00000000E+00  0.00000000E+00
  0.00000000E+00  0.00000000E+00  0.00000000E+00
  0.00000000E+00  0.00000000E+00  0.00000000E+00
  0.00000000E+00  0.00000000E+00  0.00000000E+00
  0.00000000E+00  0.00000000E+00  0.00000000E+00
  0.00000000E+00  0.00000000E+00  0.00000000E+00
  0.00000000E+00  0.00000000E+00  0.00000000E+00
  0.00000000E+00  0.00000000E+00  0.00000000E+00
  0.00000000E+00  0.00000000E+00  0.00000000E+00
  0.00000000E+00  0.00000000E+00  0.00000000E+00
  0.00000000E+00  0.00000000E+00  0.00000000E+00
