SiGeH16                                 
   1.00000000000000     
    20.0000000000000000    0.0000000000000000    0.0000000000000000
     0.0000000000000000   20.0000000000000000    0.0000000000000000
     0.0000000000000000    0.0000000000000000   20.0000000000000000
   Si   Ge   H 
     7     3    16
Direct
  0.4747431871979227  0.5545669813771805  0.3849825243665410
  0.3705206188259692  0.5391687294118180  0.4372312554635264
  0.5413466792976639  0.4584441238514087  0.3973959137878884
  0.3845676188896155  0.5164456090307377  0.5517655980128474
  0.5584132812188134  0.4342947450428677  0.5112261812642465
  0.6133663765719778  0.5233242690943889  0.5647136802989292
  0.4388741075038556  0.6057812163049238  0.6054061967124503
  0.5307141976886633  0.6477797161953129  0.4360475577838787
  0.5466949100598403  0.6228579377164088  0.5551338265211205
  0.4514841251627090  0.4173026917367031  0.5633718345948641
  0.4151952469427711  0.3568863492024956  0.5302000091966803
  0.4608288814847087  0.3999083757973687  0.6387090558202896
  0.5992882659306040  0.3716460540633101  0.5176373432133846
  0.6804362929008495  0.5351042215212071  0.5334374563749164
  0.6241428583815599  0.5069558180096243  0.6370316855351577
  0.6072751766588688  0.4690293923690381  0.3633262443706862
  0.5077640724949040  0.4000528846771937  0.3644924228874573
  0.4642761216353489  0.5684526752723597  0.3119514040945896
  0.5830292425951559  0.6827419823159117  0.5896188327849424
  0.4470776212577805  0.5906395328697197  0.6783279548640816
  0.3982540485968570  0.6684477976476220  0.5992418055732526
  0.3174549599985463  0.5048152417922915  0.5833454631418941
  0.3343243913779268  0.4820096809666918  0.4049382477240719
  0.3286252358036161  0.6006876847224163  0.4283084125476059
  0.4885801533418163  0.7127942399124479  0.4279907171087436
  0.5996923281816486  0.6602620490985558  0.4020853759559515
 
  0.00000000E+00  0.00000000E+00  0.00000000E+00
  0.00000000E+00  0.00000000E+00  0.00000000E+00
  0.00000000E+00  0.00000000E+00  0.00000000E+00
  0.00000000E+00  0.00000000E+00  0.00000000E+00
  0.00000000E+00  0.00000000E+00  0.00000000E+00
  0.00000000E+00  0.00000000E+00  0.00000000E+00
  0.00000000E+00  0.00000000E+00  0.00000000E+00
  0.00000000E+00  0.00000000E+00  0.00000000E+00
  0.00000000E+00  0.00000000E+00  0.00000000E+00
  0.00000000E+00  0.00000000E+00  0.00000000E+00
  0.00000000E+00  0.00000000E+00  0.00000000E+00
  0.00000000E+00  0.00000000E+00  0.00000000E+00
  0.00000000E+00  0.00000000E+00  0.00000000E+00
  0.00000000E+00  0.00000000E+00  0.00000000E+00
  0.00000000E+00  0.00000000E+00  0.00000000E+00
  0.00000000E+00  0.00000000E+00  0.00000000E+00
  0.00000000E+00  0.00000000E+00  0.00000000E+00
  0.00000000E+00  0.00000000E+00  0.00000000E+00
  0.00000000E+00  0.00000000E+00  0.00000000E+00
  0.00000000E+00  0.00000000E+00  0.00000000E+00
  0.00000000E+00  0.00000000E+00  0.00000000E+00
  0.00000000E+00  0.00000000E+00  0.00000000E+00
  0.00000000E+00  0.00000000E+00  0.00000000E+00
  0.00000000E+00  0.00000000E+00  0.00000000E+00
  0.00000000E+00  0.00000000E+00  0.00000000E+00
  0.00000000E+00  0.00000000E+00  0.00000000E+00
