SiGeH16                                 
   1.00000000000000     
    20.0000000000000000    0.0000000000000000    0.0000000000000000
     0.0000000000000000   20.0000000000000000    0.0000000000000000
     0.0000000000000000    0.0000000000000000   20.0000000000000000
   Si   Ge   H 
     8     2    16
Direct
  0.4755782426821824  0.5560417892827303  0.3856744208675664
  0.3713906902344561  0.5389303799336886  0.4376309635203270
  0.5410102278681279  0.4588681855519781  0.3958274036160176
  0.5304827500027613  0.6467008499503279  0.4365983716257276
  0.3855412853728026  0.5148968039722206  0.5519551519699988
  0.6138539931029712  0.5247699139877255  0.5654230088851335
  0.4499812270826951  0.4172666949741242  0.5639281803541962
  0.4394521843253401  0.6051048054878621  0.6047133409170939
  0.5571149040575918  0.4334883813679511  0.5121125901856516
  0.5464706277528748  0.6232926443378375  0.5533129905065195
  0.4151603882902322  0.3593416403899141  0.5316042802417584
  0.4592934135670461  0.4009813532460171  0.6364775956701294
  0.5996134590112376  0.3683693943504167  0.5190078600614143
  0.6808802349313225  0.5353998669870776  0.5337168207217573
  0.6244057237074614  0.5096091803971916  0.6380104411153340
  0.6075149719887634  0.4687380315347482  0.3627372277336747
  0.5068846406840635  0.4012614154644751  0.3622201282838731
  0.4646604058543033  0.5712213870090963  0.3129255702301137
  0.5819188351664693  0.6838657270810558  0.5874924850632297
  0.4486528853207830  0.5908367275473623  0.6777002497660689
  0.3979016873653123  0.6671263940034819  0.5984242355987561
  0.3181783200171324  0.5042788897006574  0.5834409549374939
  0.3355713299521668  0.4822178141618636  0.4042078119301848
  0.3289483330262613  0.6001996896184920  0.4298079595714484
  0.4896266737172681  0.7090367565075368  0.4290157663048859
  0.5968825649183742  0.6585552831541648  0.4029511903216493
 
  0.00000000E+00  0.00000000E+00  0.00000000E+00
  0.00000000E+00  0.00000000E+00  0.00000000E+00
  0.00000000E+00  0.00000000E+00  0.00000000E+00
  0.00000000E+00  0.00000000E+00  0.00000000E+00
  0.00000000E+00  0.00000000E+00  0.00000000E+00
  0.00000000E+00  0.00000000E+00  0.00000000E+00
  0.00000000E+00  0.00000000E+00  0.00000000E+00
  0.00000000E+00  0.00000000E+00  0.00000000E+00
  0.00000000E+00  0.00000000E+00  0.00000000E+00
  0.00000000E+00  0.00000000E+00  0.00000000E+00
  0.00000000E+00  0.00000000E+00  0.00000000E+00
  0.00000000E+00  0.00000000E+00  0.00000000E+00
  0.00000000E+00  0.00000000E+00  0.00000000E+00
  0.00000000E+00  0.00000000E+00  0.00000000E+00
  0.00000000E+00  0.00000000E+00  0.00000000E+00
  0.00000000E+00  0.00000000E+00  0.00000000E+00
  0.00000000E+00  0.00000000E+00  0.00000000E+00
  0.00000000E+00  0.00000000E+00  0.00000000E+00
  0.00000000E+00  0.00000000E+00  0.00000000E+00
  0.00000000E+00  0.00000000E+00  0.00000000E+00
  0.00000000E+00  0.00000000E+00  0.00000000E+00
  0.00000000E+00  0.00000000E+00  0.00000000E+00
  0.00000000E+00  0.00000000E+00  0.00000000E+00
  0.00000000E+00  0.00000000E+00  0.00000000E+00
  0.00000000E+00  0.00000000E+00  0.00000000E+00
  0.00000000E+00  0.00000000E+00  0.00000000E+00
