SiGeH16                                 
   1.00000000000000     
    20.0000000000000000    0.0000000000000000    0.0000000000000000
     0.0000000000000000   20.0000000000000000    0.0000000000000000
     0.0000000000000000    0.0000000000000000   20.0000000000000000
   Si   Ge   H 
     7     3    16
Direct
  0.4757997763801711  0.5557392427665135  0.3871483032304894
  0.3704327381708197  0.5390162729901959  0.4369839924715038
  0.5411938868090047  0.4583264630283566  0.3971683620405884
  0.5306422845584677  0.6466633519589351  0.4380514486475775
  0.3836057665601942  0.5149659980937003  0.5511491106057917
  0.5576333832649567  0.4327302270744653  0.5105705757638859
  0.5468817098577574  0.6246681033917838  0.5522373588522242
  0.6129898221208663  0.5250127868056893  0.5640485182236148
  0.4507884924052377  0.4160334443348503  0.5629742064326422
  0.4401097165453507  0.6067021996252464  0.6043680239401397
  0.4144832931965681  0.3551952424272926  0.5305720531327935
  0.4606121394607570  0.3995803201631603  0.6384490336974196
  0.5992546448050504  0.3707173871164500  0.5178048897864542
  0.6833336001119434  0.5358258641296771  0.5323581192006372
  0.6237972956072682  0.5092368511050864  0.6395336517963699
  0.6073495117779615  0.4688075148592148  0.3634855873437388
  0.5068197593125063  0.4012301899231687  0.3628268408588937
  0.4660277846928338  0.5710086101797032  0.3142662589602452
  0.5817963982148768  0.6821956946322558  0.5854289777447192
  0.4498676257657905  0.5914145565345095  0.6800954036660087
  0.3967849651526549  0.6712433415007837  0.5991926220374140
  0.3168475238012007  0.5041658946097840  0.5836553147359993
  0.3351183061710969  0.4823664437569377  0.4028576361755256
  0.3284774814092444  0.6005721085445472  0.4285144429835768
  0.4895777678135289  0.7088143449256279  0.4295773767504656
  0.5967443260338712  0.6581675455220690  0.4035988909212710
 
  0.00000000E+00  0.00000000E+00  0.00000000E+00
  0.00000000E+00  0.00000000E+00  0.00000000E+00
  0.00000000E+00  0.00000000E+00  0.00000000E+00
  0.00000000E+00  0.00000000E+00  0.00000000E+00
  0.00000000E+00  0.00000000E+00  0.00000000E+00
  0.00000000E+00  0.00000000E+00  0.00000000E+00
  0.00000000E+00  0.00000000E+00  0.00000000E+00
  0.00000000E+00  0.00000000E+00  0.00000000E+00
  0.00000000E+00  0.00000000E+00  0.00000000E+00
  0.00000000E+00  0.00000000E+00  0.00000000E+00
  0.00000000E+00  0.00000000E+00  0.00000000E+00
  0.00000000E+00  0.00000000E+00  0.00000000E+00
  0.00000000E+00  0.00000000E+00  0.00000000E+00
  0.00000000E+00  0.00000000E+00  0.00000000E+00
  0.00000000E+00  0.00000000E+00  0.00000000E+00
  0.00000000E+00  0.00000000E+00  0.00000000E+00
  0.00000000E+00  0.00000000E+00  0.00000000E+00
  0.00000000E+00  0.00000000E+00  0.00000000E+00
  0.00000000E+00  0.00000000E+00  0.00000000E+00
  0.00000000E+00  0.00000000E+00  0.00000000E+00
  0.00000000E+00  0.00000000E+00  0.00000000E+00
  0.00000000E+00  0.00000000E+00  0.00000000E+00
  0.00000000E+00  0.00000000E+00  0.00000000E+00
  0.00000000E+00  0.00000000E+00  0.00000000E+00
  0.00000000E+00  0.00000000E+00  0.00000000E+00
  0.00000000E+00  0.00000000E+00  0.00000000E+00
