SiGeH16                                 
   1.00000000000000     
    20.0000000000000000    0.0000000000000000    0.0000000000000000
     0.0000000000000000   20.0000000000000000    0.0000000000000000
     0.0000000000000000    0.0000000000000000   20.0000000000000000
   Si   Ge   H 
     9     1    16
Direct
  0.4757163913533821  0.5558695330967961  0.3866322729394950
  0.3707898244206321  0.5386162805126832  0.4371310420137260
  0.5409424276575229  0.4586976436561214  0.3978898224147200
  0.5308726886343770  0.6461845142198804  0.4381976597834279
  0.3848957775038235  0.5135388675357114  0.5510965290199820
  0.5562434432912318  0.4347893869256178  0.5119845366924975
  0.5477072769718805  0.6229397437891525  0.5521825660830312
  0.6115245480757482  0.5249106679413224  0.5637538252370142
  0.4514413076803311  0.4173403460270865  0.5626774631569086
  0.4407805764798743  0.6056986995596974  0.6042172273404943
  0.4173348053467693  0.3587280584535609  0.5306872939923883
  0.4607328143296699  0.4015057821958600  0.6353604038886640
  0.5978903741183175  0.3727326667975992  0.5192674209802393
  0.6789640410970748  0.5345521802915626  0.5324345006182540
  0.6220043582632919  0.5098828928850387  0.6364471645658328
  0.6074284648777879  0.4686333453917407  0.3647613199415418
  0.5069452854847757  0.4010848978260426  0.3641018101505449
  0.4659040570807925  0.5711970424022121  0.3137796512833750
  0.5825526567109790  0.6805209178081754  0.5854238353712902
  0.4501162944379722  0.5910450545968581  0.6801298505716376
  0.3975092933217915  0.6701660797566554  0.5982041638329069
  0.3181114960998832  0.5028242617243617  0.5836515644386702
  0.3352031877087045  0.4822278319568656  0.4028397626282543
  0.3286255640274974  0.6001545618969989  0.4297061547468068
  0.4898948014536661  0.7085185585068481  0.4307763113989908
  0.5968382435722160  0.6580401842455561  0.4045828469093041
 
  0.00000000E+00  0.00000000E+00  0.00000000E+00
  0.00000000E+00  0.00000000E+00  0.00000000E+00
  0.00000000E+00  0.00000000E+00  0.00000000E+00
  0.00000000E+00  0.00000000E+00  0.00000000E+00
  0.00000000E+00  0.00000000E+00  0.00000000E+00
  0.00000000E+00  0.00000000E+00  0.00000000E+00
  0.00000000E+00  0.00000000E+00  0.00000000E+00
  0.00000000E+00  0.00000000E+00  0.00000000E+00
  0.00000000E+00  0.00000000E+00  0.00000000E+00
  0.00000000E+00  0.00000000E+00  0.00000000E+00
  0.00000000E+00  0.00000000E+00  0.00000000E+00
  0.00000000E+00  0.00000000E+00  0.00000000E+00
  0.00000000E+00  0.00000000E+00  0.00000000E+00
  0.00000000E+00  0.00000000E+00  0.00000000E+00
  0.00000000E+00  0.00000000E+00  0.00000000E+00
  0.00000000E+00  0.00000000E+00  0.00000000E+00
  0.00000000E+00  0.00000000E+00  0.00000000E+00
  0.00000000E+00  0.00000000E+00  0.00000000E+00
  0.00000000E+00  0.00000000E+00  0.00000000E+00
  0.00000000E+00  0.00000000E+00  0.00000000E+00
  0.00000000E+00  0.00000000E+00  0.00000000E+00
  0.00000000E+00  0.00000000E+00  0.00000000E+00
  0.00000000E+00  0.00000000E+00  0.00000000E+00
  0.00000000E+00  0.00000000E+00  0.00000000E+00
  0.00000000E+00  0.00000000E+00  0.00000000E+00
  0.00000000E+00  0.00000000E+00  0.00000000E+00
