SiGeH16                                 
   1.00000000000000     
    20.0000000000000000    0.0000000000000000    0.0000000000000000
     0.0000000000000000   20.0000000000000000    0.0000000000000000
     0.0000000000000000    0.0000000000000000   20.0000000000000000
   Si   Ge   H 
     7     3    16
Direct
  0.4748305695443733  0.5545196473013192  0.3855730733575058
  0.3700321075959323  0.5386519595831558  0.4367402105380052
  0.5412469593899445  0.4582478520245417  0.3972616355657479
  0.3835814206598585  0.5150280815348225  0.5510712807436491
  0.5580104391557228  0.4348422769239448  0.5112235065752344
  0.5480879111408541  0.6228159404326945  0.5541241185250882
  0.6122775354783911  0.5248769410138863  0.5641505222083012
  0.5312098309050342  0.6469848366413729  0.4377383581909982
  0.4511324156069421  0.4165011178958906  0.5630956730377932
  0.4404410983403295  0.6061975611779928  0.6049115837781400
  0.4157353527528542  0.3554333818230901  0.5301452666447730
  0.4606635811001567  0.3997579220986935  0.6385547674097296
  0.5997447593745804  0.3728879519422961  0.5184366003368979
  0.6796697777645448  0.5355490818336079  0.5330463962475989
  0.6227953826431047  0.5087189825516489  0.6365904155481275
  0.6072461685194170  0.4689414917043280  0.3633895584615132
  0.5077169190320916  0.3999060814059661  0.3642553877816894
  0.4649590269261878  0.5697286390835714  0.3127479351394840
  0.5830656809087600  0.6803146065085244  0.5873434286666139
  0.4488157502778023  0.5909480204794519  0.6808544097104985
  0.3980987271283993  0.6713253465046378  0.5989559119179830
  0.3167388456100753  0.5042888511025581  0.5834738640472850
  0.3339446027413686  0.4820243175707333  0.4033608414521765
  0.3284281883605615  0.6004401915074027  0.4283287636477056
  0.4888719055780939  0.7118743059340034  0.4298550461939286
  0.5996250434645987  0.6595946134198840  0.4016884442735224
 
  0.00000000E+00  0.00000000E+00  0.00000000E+00
  0.00000000E+00  0.00000000E+00  0.00000000E+00
  0.00000000E+00  0.00000000E+00  0.00000000E+00
  0.00000000E+00  0.00000000E+00  0.00000000E+00
  0.00000000E+00  0.00000000E+00  0.00000000E+00
  0.00000000E+00  0.00000000E+00  0.00000000E+00
  0.00000000E+00  0.00000000E+00  0.00000000E+00
  0.00000000E+00  0.00000000E+00  0.00000000E+00
  0.00000000E+00  0.00000000E+00  0.00000000E+00
  0.00000000E+00  0.00000000E+00  0.00000000E+00
  0.00000000E+00  0.00000000E+00  0.00000000E+00
  0.00000000E+00  0.00000000E+00  0.00000000E+00
  0.00000000E+00  0.00000000E+00  0.00000000E+00
  0.00000000E+00  0.00000000E+00  0.00000000E+00
  0.00000000E+00  0.00000000E+00  0.00000000E+00
  0.00000000E+00  0.00000000E+00  0.00000000E+00
  0.00000000E+00  0.00000000E+00  0.00000000E+00
  0.00000000E+00  0.00000000E+00  0.00000000E+00
  0.00000000E+00  0.00000000E+00  0.00000000E+00
  0.00000000E+00  0.00000000E+00  0.00000000E+00
  0.00000000E+00  0.00000000E+00  0.00000000E+00
  0.00000000E+00  0.00000000E+00  0.00000000E+00
  0.00000000E+00  0.00000000E+00  0.00000000E+00
  0.00000000E+00  0.00000000E+00  0.00000000E+00
  0.00000000E+00  0.00000000E+00  0.00000000E+00
  0.00000000E+00  0.00000000E+00  0.00000000E+00
