SiGeH16                                 
   1.00000000000000     
    20.0000000000000000    0.0000000000000000    0.0000000000000000
     0.0000000000000000   20.0000000000000000    0.0000000000000000
     0.0000000000000000    0.0000000000000000   20.0000000000000000
   Si   Ge   H 
     8     2    16
Direct
  0.4748028977310257  0.5545159522195564  0.3853269321654276
  0.3703594405613807  0.5389897175211226  0.4370882208819850
  0.5412577607365024  0.4582335893485637  0.3972380035605572
  0.3849611434976298  0.5165026806092859  0.5515858879592802
  0.5581717021830780  0.4346565008512917  0.5111973561287295
  0.5462109619536620  0.6220763219730127  0.5546471816902805
  0.6117128578958139  0.5248911042024620  0.5642948114414570
  0.4408121233707646  0.6056493293557667  0.6041442494817184
  0.5307269854300896  0.6467902585025267  0.4381192965472825
  0.4513527040623478  0.4170805570270066  0.5632577467129095
  0.4150543017036030  0.3566179887309780  0.5301354767366934
  0.4608237468381666  0.3999159829304016  0.6386648775002945
  0.5998373728197312  0.3726075074965664  0.5183942711864644
  0.6788331068125050  0.5365700162816771  0.5330521829861361
  0.6226166719793624  0.5086631418038188  0.6366514857813470
  0.6072780242244513  0.4688885203941480  0.3633935674958593
  0.5077116116939987  0.3999219313808008  0.3641927024360905
  0.4650250766374345  0.5697793997355308  0.3124605697895672
  0.5811692988791383  0.6796509661851270  0.5878251603862622
  0.4490454514837188  0.5906778667007787  0.6771229475192312
  0.4000968952602277  0.6682810034653360  0.5980469644419115
  0.3181301948546059  0.5057145990823063  0.5840688145763785
  0.3341477020998358  0.4819357660644760  0.4046646211468237
  0.3285479962093815  0.6005863737749924  0.4283930786041477
  0.4886300145507764  0.7118371189997305  0.4299130939434929
  0.5996539565307626  0.6593658053627405  0.4040374988996710
 
  0.00000000E+00  0.00000000E+00  0.00000000E+00
  0.00000000E+00  0.00000000E+00  0.00000000E+00
  0.00000000E+00  0.00000000E+00  0.00000000E+00
  0.00000000E+00  0.00000000E+00  0.00000000E+00
  0.00000000E+00  0.00000000E+00  0.00000000E+00
  0.00000000E+00  0.00000000E+00  0.00000000E+00
  0.00000000E+00  0.00000000E+00  0.00000000E+00
  0.00000000E+00  0.00000000E+00  0.00000000E+00
  0.00000000E+00  0.00000000E+00  0.00000000E+00
  0.00000000E+00  0.00000000E+00  0.00000000E+00
  0.00000000E+00  0.00000000E+00  0.00000000E+00
  0.00000000E+00  0.00000000E+00  0.00000000E+00
  0.00000000E+00  0.00000000E+00  0.00000000E+00
  0.00000000E+00  0.00000000E+00  0.00000000E+00
  0.00000000E+00  0.00000000E+00  0.00000000E+00
  0.00000000E+00  0.00000000E+00  0.00000000E+00
  0.00000000E+00  0.00000000E+00  0.00000000E+00
  0.00000000E+00  0.00000000E+00  0.00000000E+00
  0.00000000E+00  0.00000000E+00  0.00000000E+00
  0.00000000E+00  0.00000000E+00  0.00000000E+00
  0.00000000E+00  0.00000000E+00  0.00000000E+00
  0.00000000E+00  0.00000000E+00  0.00000000E+00
  0.00000000E+00  0.00000000E+00  0.00000000E+00
  0.00000000E+00  0.00000000E+00  0.00000000E+00
  0.00000000E+00  0.00000000E+00  0.00000000E+00
  0.00000000E+00  0.00000000E+00  0.00000000E+00
