SiGeH16                                 
   1.00000000000000     
    20.0000000000000000    0.0000000000000000    0.0000000000000000
     0.0000000000000000   20.0000000000000000    0.0000000000000000
     0.0000000000000000    0.0000000000000000   20.0000000000000000
   Si   Ge   H 
     7     3    16
Direct
  0.4746743336979151  0.5547747120080775  0.3842514995429203
  0.3700566702706533  0.5387509029976993  0.4352531561453614
  0.5405821947618077  0.4581669364329867  0.3954951980453223
  0.5467290773776179  0.6229480687204222  0.5551074914983467
  0.6123317605498008  0.5260524287472452  0.5656265884393606
  0.4506564846931880  0.4150542082732768  0.5643574127161707
  0.4418095115832725  0.6066357892145990  0.6053892125418012
  0.5306385185645894  0.6465430105153811  0.4382542485603022
  0.3852438151338110  0.5148997560338979  0.5521084587600843
  0.5570246312875348  0.4337195126947219  0.5120587635764522
  0.4157875557177518  0.3572170949272131  0.5319844505788672
  0.4600215246811301  0.3990771500131025  0.6369256586895202
  0.6012824677803382  0.3697625270089625  0.5189163223228755
  0.6791987568210779  0.5368772866222835  0.5336263450001750
  0.6237472829944350  0.5099428269692640  0.6379113150660628
  0.6071109697378201  0.4686910083326328  0.3626991513662916
  0.5074328371041229  0.3998600041193899  0.3620793354686124
  0.4654510394774439  0.5711355461610987  0.3115524582537010
  0.5817055034674381  0.6811315369639750  0.5871883998257039
  0.4497995540528331  0.5921279152243859  0.6784699502750853
  0.4003232944389802  0.6686515772131449  0.5986528067303855
  0.3154238417769810  0.5048526580376219  0.5855783007542043
  0.3334866358064953  0.4820598672825562  0.4026349179748009
  0.3282398684941145  0.6004553374722398  0.4277339282160701
  0.4886930461734230  0.7116940010993424  0.4299457510128521
  0.5995188235554177  0.6593183369144834  0.4041158786386670
 
  0.00000000E+00  0.00000000E+00  0.00000000E+00
  0.00000000E+00  0.00000000E+00  0.00000000E+00
  0.00000000E+00  0.00000000E+00  0.00000000E+00
  0.00000000E+00  0.00000000E+00  0.00000000E+00
  0.00000000E+00  0.00000000E+00  0.00000000E+00
  0.00000000E+00  0.00000000E+00  0.00000000E+00
  0.00000000E+00  0.00000000E+00  0.00000000E+00
  0.00000000E+00  0.00000000E+00  0.00000000E+00
  0.00000000E+00  0.00000000E+00  0.00000000E+00
  0.00000000E+00  0.00000000E+00  0.00000000E+00
  0.00000000E+00  0.00000000E+00  0.00000000E+00
  0.00000000E+00  0.00000000E+00  0.00000000E+00
  0.00000000E+00  0.00000000E+00  0.00000000E+00
  0.00000000E+00  0.00000000E+00  0.00000000E+00
  0.00000000E+00  0.00000000E+00  0.00000000E+00
  0.00000000E+00  0.00000000E+00  0.00000000E+00
  0.00000000E+00  0.00000000E+00  0.00000000E+00
  0.00000000E+00  0.00000000E+00  0.00000000E+00
  0.00000000E+00  0.00000000E+00  0.00000000E+00
  0.00000000E+00  0.00000000E+00  0.00000000E+00
  0.00000000E+00  0.00000000E+00  0.00000000E+00
  0.00000000E+00  0.00000000E+00  0.00000000E+00
  0.00000000E+00  0.00000000E+00  0.00000000E+00
  0.00000000E+00  0.00000000E+00  0.00000000E+00
  0.00000000E+00  0.00000000E+00  0.00000000E+00
  0.00000000E+00  0.00000000E+00  0.00000000E+00
