SiGeH16                                 
   1.00000000000000     
    20.0000000000000000    0.0000000000000000    0.0000000000000000
     0.0000000000000000   20.0000000000000000    0.0000000000000000
     0.0000000000000000    0.0000000000000000   20.0000000000000000
   Si   Ge   H 
     7     3    16
Direct
  0.4755832471805426  0.5559098623335411  0.3863823000044774
  0.3706130520116925  0.5392378243613348  0.4370872297498084
  0.5414385345600907  0.4590017218324307  0.3977590895318665
  0.5307102570974706  0.6470619240596763  0.4361534724942298
  0.3829394943078791  0.5148773851237936  0.5513873514754366
  0.5584705625531953  0.4341298957634064  0.5114021035085773
  0.6136193425526384  0.5234375824167671  0.5642350319152800
  0.5481120359022631  0.6234951463083349  0.5526168856241122
  0.4512996030947150  0.4167721425973703  0.5632284031680557
  0.4386691613400229  0.6063649339352419  0.6056161746272365
  0.4160033781075456  0.3557067702806830  0.5301848778752590
  0.4606644181483168  0.3997366537255316  0.6386303816623670
  0.5993354538957328  0.3714501532006318  0.5178414211791214
  0.6810870658889648  0.5339018870804094  0.5333304430645059
  0.6236890074751310  0.5082197127451590  0.6368812952320207
  0.6073636460025289  0.4692310757475247  0.3635390674022960
  0.5070839545950421  0.4013419985360137  0.3643795526635141
  0.4651624957557301  0.5699529750899621  0.3133101975347549
  0.5844470392808608  0.6833733867158739  0.5871543383582274
  0.4481763645372467  0.5913741503046462  0.6814273178475281
  0.3963770106757238  0.6715153920550241  0.6000056509182286
  0.3157949362984313  0.5030856386031425  0.5828544495929915
  0.3354613757337258  0.4825152488202187  0.4029162253172487
  0.3285619705509352  0.6006952156390354  0.4284379561559809
  0.4897001762481727  0.7093124230247814  0.4287403246212891
  0.5966064162053947  0.6586988996994703  0.4024154584755833
 
  0.00000000E+00  0.00000000E+00  0.00000000E+00
  0.00000000E+00  0.00000000E+00  0.00000000E+00
  0.00000000E+00  0.00000000E+00  0.00000000E+00
  0.00000000E+00  0.00000000E+00  0.00000000E+00
  0.00000000E+00  0.00000000E+00  0.00000000E+00
  0.00000000E+00  0.00000000E+00  0.00000000E+00
  0.00000000E+00  0.00000000E+00  0.00000000E+00
  0.00000000E+00  0.00000000E+00  0.00000000E+00
  0.00000000E+00  0.00000000E+00  0.00000000E+00
  0.00000000E+00  0.00000000E+00  0.00000000E+00
  0.00000000E+00  0.00000000E+00  0.00000000E+00
  0.00000000E+00  0.00000000E+00  0.00000000E+00
  0.00000000E+00  0.00000000E+00  0.00000000E+00
  0.00000000E+00  0.00000000E+00  0.00000000E+00
  0.00000000E+00  0.00000000E+00  0.00000000E+00
  0.00000000E+00  0.00000000E+00  0.00000000E+00
  0.00000000E+00  0.00000000E+00  0.00000000E+00
  0.00000000E+00  0.00000000E+00  0.00000000E+00
  0.00000000E+00  0.00000000E+00  0.00000000E+00
  0.00000000E+00  0.00000000E+00  0.00000000E+00
  0.00000000E+00  0.00000000E+00  0.00000000E+00
  0.00000000E+00  0.00000000E+00  0.00000000E+00
  0.00000000E+00  0.00000000E+00  0.00000000E+00
  0.00000000E+00  0.00000000E+00  0.00000000E+00
  0.00000000E+00  0.00000000E+00  0.00000000E+00
  0.00000000E+00  0.00000000E+00  0.00000000E+00
