SiGeH16                                 
   1.00000000000000     
    20.0000000000000000    0.0000000000000000    0.0000000000000000
     0.0000000000000000   20.0000000000000000    0.0000000000000000
     0.0000000000000000    0.0000000000000000   20.0000000000000000
   Si   Ge   H 
     8     2    16
Direct
  0.4756566167390588  0.5559528411004564  0.3862580458566143
  0.3709309249703097  0.5387724500070306  0.4372488534064232
  0.5410259968830431  0.4589224568356158  0.3980520335205355
  0.5307569100034044  0.6470859565483096  0.4361355812793235
  0.3845492133063075  0.5134604881694429  0.5512426486288788
  0.5564519829318400  0.4344706534175842  0.5120309568639172
  0.6130579568566787  0.5233380832547141  0.5642596063764529
  0.4515492409736339  0.4175432457946684  0.5627446166794385
  0.5481999950493446  0.6237325365022457  0.5526314218907231
  0.4389652269575492  0.6058131589695819  0.6054950513536923
  0.4175359352226948  0.3589409268834061  0.5306073087645657
  0.4607774946024108  0.4015980168198752  0.6354005528168756
  0.5972322350786072  0.3717724823747730  0.5186704497977175
  0.6803919999094035  0.5329763066082052  0.5327831630059450
  0.6233387397749510  0.5083673695705642  0.6369342448322541
  0.6074787713525183  0.4687539235690679  0.3648433133908000
  0.5068901837074051  0.4013267643103617  0.3643727319593708
  0.4652927887205678  0.5701645785471641  0.3132579734375653
  0.5844072752513512  0.6836217443226644  0.5872130904878787
  0.4485313879291439  0.5911229908658555  0.6813843123835142
  0.3958318403346439  0.6703731029528512  0.5993314145178203
  0.3175045964179404  0.5016881268599249  0.5829415685218748
  0.3354902541824742  0.4823124324446368  0.4028949947909339
  0.3286808799522802  0.6002311454621179  0.4297634370166179
  0.4896954557738198  0.7093114426152667  0.4288524195354881
  0.5967460971186043  0.6587467751936060  0.4015672088847757
 
  0.00000000E+00  0.00000000E+00  0.00000000E+00
  0.00000000E+00  0.00000000E+00  0.00000000E+00
  0.00000000E+00  0.00000000E+00  0.00000000E+00
  0.00000000E+00  0.00000000E+00  0.00000000E+00
  0.00000000E+00  0.00000000E+00  0.00000000E+00
  0.00000000E+00  0.00000000E+00  0.00000000E+00
  0.00000000E+00  0.00000000E+00  0.00000000E+00
  0.00000000E+00  0.00000000E+00  0.00000000E+00
  0.00000000E+00  0.00000000E+00  0.00000000E+00
  0.00000000E+00  0.00000000E+00  0.00000000E+00
  0.00000000E+00  0.00000000E+00  0.00000000E+00
  0.00000000E+00  0.00000000E+00  0.00000000E+00
  0.00000000E+00  0.00000000E+00  0.00000000E+00
  0.00000000E+00  0.00000000E+00  0.00000000E+00
  0.00000000E+00  0.00000000E+00  0.00000000E+00
  0.00000000E+00  0.00000000E+00  0.00000000E+00
  0.00000000E+00  0.00000000E+00  0.00000000E+00
  0.00000000E+00  0.00000000E+00  0.00000000E+00
  0.00000000E+00  0.00000000E+00  0.00000000E+00
  0.00000000E+00  0.00000000E+00  0.00000000E+00
  0.00000000E+00  0.00000000E+00  0.00000000E+00
  0.00000000E+00  0.00000000E+00  0.00000000E+00
  0.00000000E+00  0.00000000E+00  0.00000000E+00
  0.00000000E+00  0.00000000E+00  0.00000000E+00
  0.00000000E+00  0.00000000E+00  0.00000000E+00
  0.00000000E+00  0.00000000E+00  0.00000000E+00
