SiGeH16                                 
   1.00000000000000     
    20.0000000000000000    0.0000000000000000    0.0000000000000000
     0.0000000000000000   20.0000000000000000    0.0000000000000000
     0.0000000000000000    0.0000000000000000   20.0000000000000000
   Si   Ge   H 
     9     1    16
Direct
  0.4756441958070899  0.5560024710912477  0.3859320050468813
  0.3713207773654169  0.5391405572739504  0.4376498589974864
  0.5410275376039836  0.4589431638873780  0.3980723641189974
  0.5303727417605487  0.6468648474292243  0.4364973493375099
  0.3857944840318634  0.5149369574971026  0.5518770893582837
  0.5566518715920376  0.4342051848278390  0.5120321945485484
  0.6124928132017873  0.5233906625135289  0.5643422134633537
  0.4517807251638415  0.4181501486034658  0.5628933244604194
  0.4392746187503974  0.6052398642443950  0.6047355304903179
  0.5463217652060998  0.6230463258120877  0.5531722604990295
  0.4168774974450284  0.3602055643436078  0.5305916909363233
  0.4609606938683742  0.4017657252109830  0.6354628965932251
  0.5974351900670466  0.3714413212847786  0.5185958823178374
  0.6795864799105569  0.5340498653520843  0.5327633190691917
  0.6231820680322080  0.5082889588970499  0.6369373183333419
  0.6074955689647116  0.4687608476433655  0.3648391517548837
  0.5068802669195316  0.4013353510072153  0.3643893074587661
  0.4652900795591268  0.5701412646909039  0.3128646590384904
  0.5826578760499086  0.6829401480395707  0.5876675238324949
  0.4485554920129081  0.5908098403498456  0.6776662928845120
  0.3977119237564823  0.6672491331309222  0.5984941816913026
  0.3187002948882514  0.5031339790464356  0.5835777694903163
  0.3357389676914983  0.4822058798541127  0.4042972679168293
  0.3288581877501355  0.6004101299195176  0.4298156634346186
  0.4895558962990986  0.7092126230010423  0.4288734935121211
  0.5968019863020599  0.6585291850483496  0.4038763914149162
 
  0.00000000E+00  0.00000000E+00  0.00000000E+00
  0.00000000E+00  0.00000000E+00  0.00000000E+00
  0.00000000E+00  0.00000000E+00  0.00000000E+00
  0.00000000E+00  0.00000000E+00  0.00000000E+00
  0.00000000E+00  0.00000000E+00  0.00000000E+00
  0.00000000E+00  0.00000000E+00  0.00000000E+00
  0.00000000E+00  0.00000000E+00  0.00000000E+00
  0.00000000E+00  0.00000000E+00  0.00000000E+00
  0.00000000E+00  0.00000000E+00  0.00000000E+00
  0.00000000E+00  0.00000000E+00  0.00000000E+00
  0.00000000E+00  0.00000000E+00  0.00000000E+00
  0.00000000E+00  0.00000000E+00  0.00000000E+00
  0.00000000E+00  0.00000000E+00  0.00000000E+00
  0.00000000E+00  0.00000000E+00  0.00000000E+00
  0.00000000E+00  0.00000000E+00  0.00000000E+00
  0.00000000E+00  0.00000000E+00  0.00000000E+00
  0.00000000E+00  0.00000000E+00  0.00000000E+00
  0.00000000E+00  0.00000000E+00  0.00000000E+00
  0.00000000E+00  0.00000000E+00  0.00000000E+00
  0.00000000E+00  0.00000000E+00  0.00000000E+00
  0.00000000E+00  0.00000000E+00  0.00000000E+00
  0.00000000E+00  0.00000000E+00  0.00000000E+00
  0.00000000E+00  0.00000000E+00  0.00000000E+00
  0.00000000E+00  0.00000000E+00  0.00000000E+00
  0.00000000E+00  0.00000000E+00  0.00000000E+00
  0.00000000E+00  0.00000000E+00  0.00000000E+00
