SiGeH16                                 
   1.00000000000000     
    20.0000000000000000    0.0000000000000000    0.0000000000000000
     0.0000000000000000   20.0000000000000000    0.0000000000000000
     0.0000000000000000    0.0000000000000000   20.0000000000000000
   Si   Ge   H 
     8     2    16
Direct
  0.4756566167390606  0.5559528411004588  0.3862580458566161
  0.3709309249703080  0.5387724500070311  0.4372488534064201
  0.5410259968830421  0.4589224568356132  0.3980520335205358
  0.5307569100034037  0.6470859565483117  0.4361355812793267
  0.3845492133063076  0.5134604881694440  0.5512426486288783
  0.5564519829318388  0.4344706534175838  0.5120309568639170
  0.6130579568566809  0.5233380832547109  0.5642596063764515
  0.4515492409736324  0.4175432457946684  0.5627446166794356
  0.5481999950493457  0.6237325365022475  0.5526314218907248
  0.4389652269575494  0.6058131589695832  0.6054950513536914
  0.4175359352226980  0.3589409268834041  0.5306073087645676
  0.4607774946024082  0.4015980168198781  0.6354005528168791
  0.5972322350786080  0.3717724823747697  0.5186704497977169
  0.6803919999094047  0.5329763066082055  0.5327831630059471
  0.6233387397749529  0.5083673695705633  0.6369342448322524
  0.6074787713525178  0.4687539235690678  0.3648433133907966
  0.5068901837074061  0.4013267643103640  0.3643727319593703
  0.4652927887205712  0.5701645785471624  0.3132579734375680
  0.5844072752513485  0.6836217443226646  0.5872130904878777
  0.4485313879291469  0.5911229908658590  0.6813843123835122
  0.3958318403346452  0.6703731029528527  0.5993314145178179
  0.3175045964179426  0.5016881268599267  0.5829415685218754
  0.3354902541824711  0.4823124324446385  0.4028949947909364
  0.3286808799522802  0.6002311454621193  0.4297634370166208
  0.4896954557738190  0.7093114426152692  0.4288524195354872
  0.5967460971186043  0.6587467751936068  0.4025672088847743
 
  0.00000000E+00  0.00000000E+00  0.00000000E+00
  0.00000000E+00  0.00000000E+00  0.00000000E+00
  0.00000000E+00  0.00000000E+00  0.00000000E+00
  0.00000000E+00  0.00000000E+00  0.00000000E+00
  0.00000000E+00  0.00000000E+00  0.00000000E+00
  0.00000000E+00  0.00000000E+00  0.00000000E+00
  0.00000000E+00  0.00000000E+00  0.00000000E+00
  0.00000000E+00  0.00000000E+00  0.00000000E+00
  0.00000000E+00  0.00000000E+00  0.00000000E+00
  0.00000000E+00  0.00000000E+00  0.00000000E+00
  0.00000000E+00  0.00000000E+00  0.00000000E+00
  0.00000000E+00  0.00000000E+00  0.00000000E+00
  0.00000000E+00  0.00000000E+00  0.00000000E+00
  0.00000000E+00  0.00000000E+00  0.00000000E+00
  0.00000000E+00  0.00000000E+00  0.00000000E+00
  0.00000000E+00  0.00000000E+00  0.00000000E+00
  0.00000000E+00  0.00000000E+00  0.00000000E+00
  0.00000000E+00  0.00000000E+00  0.00000000E+00
  0.00000000E+00  0.00000000E+00  0.00000000E+00
  0.00000000E+00  0.00000000E+00  0.00000000E+00
  0.00000000E+00  0.00000000E+00  0.00000000E+00
  0.00000000E+00  0.00000000E+00  0.00000000E+00
  0.00000000E+00  0.00000000E+00  0.00000000E+00
  0.00000000E+00  0.00000000E+00  0.00000000E+00
  0.00000000E+00  0.00000000E+00  0.00000000E+00
  0.00000000E+00  0.00000000E+00  0.00000000E+00
