SiGeH16                                 
   1.00000000000000     
    20.0000000000000000    0.0000000000000000    0.0000000000000000
     0.0000000000000000   20.0000000000000000    0.0000000000000000
     0.0000000000000000    0.0000000000000000   20.0000000000000000
   Si   Ge   H 
     7     3    16
Direct
  0.4755505309899988  0.5561341765603416  0.3852474069701657
  0.3706174151223607  0.5393166873149866  0.4356593827005071
  0.5408315268896118  0.4588759332212078  0.3959769946360439
  0.5303083436104501  0.6466159242099749  0.4367260232296175
  0.6137069911165440  0.5247483028832960  0.5654926847113657
  0.4507534726045819  0.4152356338912639  0.5643969793199588
  0.4400116055819936  0.6068253318491657  0.6059976915709129
  0.3845567577569824  0.5147212181444445  0.5525018969153521
  0.5574290102651034  0.4330258762582986  0.5121998255643234
  0.5467316511648974  0.6237096749294082  0.5535892248391363
  0.4158898291943203  0.3573854943088222  0.5320742405468550
  0.4600022003001598  0.3990247061732859  0.6369465811505748
  0.6008184708188296  0.3684037950742081  0.5183939931505535
  0.6807449625319251  0.5353640532031889  0.5338566455315359
  0.6245394402388840  0.5096116222876645  0.6380484991633324
  0.6072678552769162  0.4688290284185186  0.3627761727907526
  0.5068434421932508  0.4013205393986681  0.3621171073650302
  0.4657645899127019  0.5714198153697794  0.3122959827513228
  0.5831014812626805  0.6842182053926962  0.5869467446850862
  0.4491593394260889  0.5924644736427638  0.6789477191255173
  0.3984184583500152  0.6687696612321545  0.5996942250931383
  0.3144890248010270  0.5037074078011088  0.5851531303790125
  0.3349134378007506  0.4825663198964492  0.4022008696758164
  0.3282836953847976  0.6006481297463537  0.4278365867078620
  0.4895885315725366  0.7090236874296494  0.4288951821202502
  0.5966479358325927  0.6584343013623197  0.4029452093059666
 
  0.00000000E+00  0.00000000E+00  0.00000000E+00
  0.00000000E+00  0.00000000E+00  0.00000000E+00
  0.00000000E+00  0.00000000E+00  0.00000000E+00
  0.00000000E+00  0.00000000E+00  0.00000000E+00
  0.00000000E+00  0.00000000E+00  0.00000000E+00
  0.00000000E+00  0.00000000E+00  0.00000000E+00
  0.00000000E+00  0.00000000E+00  0.00000000E+00
  0.00000000E+00  0.00000000E+00  0.00000000E+00
  0.00000000E+00  0.00000000E+00  0.00000000E+00
  0.00000000E+00  0.00000000E+00  0.00000000E+00
  0.00000000E+00  0.00000000E+00  0.00000000E+00
  0.00000000E+00  0.00000000E+00  0.00000000E+00
  0.00000000E+00  0.00000000E+00  0.00000000E+00
  0.00000000E+00  0.00000000E+00  0.00000000E+00
  0.00000000E+00  0.00000000E+00  0.00000000E+00
  0.00000000E+00  0.00000000E+00  0.00000000E+00
  0.00000000E+00  0.00000000E+00  0.00000000E+00
  0.00000000E+00  0.00000000E+00  0.00000000E+00
  0.00000000E+00  0.00000000E+00  0.00000000E+00
  0.00000000E+00  0.00000000E+00  0.00000000E+00
  0.00000000E+00  0.00000000E+00  0.00000000E+00
  0.00000000E+00  0.00000000E+00  0.00000000E+00
  0.00000000E+00  0.00000000E+00  0.00000000E+00
  0.00000000E+00  0.00000000E+00  0.00000000E+00
  0.00000000E+00  0.00000000E+00  0.00000000E+00
  0.00000000E+00  0.00000000E+00  0.00000000E+00
