SiGeH16                                 
   1.00000000000000     
    20.0000000000000000    0.0000000000000000    0.0000000000000000
     0.0000000000000000   20.0000000000000000    0.0000000000000000
     0.0000000000000000    0.0000000000000000   20.0000000000000000
   Si   Ge   H 
     7     3    16
Direct
  0.4746935223170733  0.5547343956072772  0.3849020592913668
  0.3705206812221072  0.5380346704735078  0.4369384712461583
  0.5407878746310649  0.4582007147590078  0.3954173399756677
  0.3846806022817481  0.5135996319620942  0.5511360800508035
  0.5483876310564041  0.6233504714272868  0.5543646281791199
  0.6131164077472305  0.5260601260878343  0.5653479262495342
  0.4496605689661251  0.4165548268313037  0.5637010611154721
  0.5313192516731157  0.6467864750409210  0.4377767658304007
  0.5566412400952454  0.4343461348964402  0.5120684933665567
  0.4408500730068830  0.6054484153391775  0.6048425978500046
  0.4157094232916047  0.3579839809993658  0.5315797343030272
  0.4591744508385270  0.4008318378033846  0.6363607834040549
  0.5999441698756677  0.3698049233949607  0.5195387557534313
  0.6802619575111758  0.5357782776558507  0.5335740264369399
  0.6238623119273452  0.5100164195974645  0.6377320892580604
  0.6073850201195814  0.4685831543672523  0.3626453494089903
  0.5074513274152450  0.3999041904061876  0.3621726204491075
  0.4643678134012251  0.5710117849081285  0.3123509588099911
  0.5823707645075971  0.6816613001715560  0.5871936081541556
  0.4490801712739029  0.5908126911204125  0.6809063318934095
  0.3976968395648905  0.6699631253395850  0.5983724291500166
  0.3175960591481831  0.5039363951921475  0.5834057936248104
  0.3340191164269735  0.4818887288887455  0.4032845046975559
  0.3287650601524633  0.5998338822207705  0.4296210112687588
  0.4889198845395743  0.7116474872759719  0.4299187313633698
  0.5997077770090399  0.6596259582333712  0.4027648488692332
 
  0.00000000E+00  0.00000000E+00  0.00000000E+00
  0.00000000E+00  0.00000000E+00  0.00000000E+00
  0.00000000E+00  0.00000000E+00  0.00000000E+00
  0.00000000E+00  0.00000000E+00  0.00000000E+00
  0.00000000E+00  0.00000000E+00  0.00000000E+00
  0.00000000E+00  0.00000000E+00  0.00000000E+00
  0.00000000E+00  0.00000000E+00  0.00000000E+00
  0.00000000E+00  0.00000000E+00  0.00000000E+00
  0.00000000E+00  0.00000000E+00  0.00000000E+00
  0.00000000E+00  0.00000000E+00  0.00000000E+00
  0.00000000E+00  0.00000000E+00  0.00000000E+00
  0.00000000E+00  0.00000000E+00  0.00000000E+00
  0.00000000E+00  0.00000000E+00  0.00000000E+00
  0.00000000E+00  0.00000000E+00  0.00000000E+00
  0.00000000E+00  0.00000000E+00  0.00000000E+00
  0.00000000E+00  0.00000000E+00  0.00000000E+00
  0.00000000E+00  0.00000000E+00  0.00000000E+00
  0.00000000E+00  0.00000000E+00  0.00000000E+00
  0.00000000E+00  0.00000000E+00  0.00000000E+00
  0.00000000E+00  0.00000000E+00  0.00000000E+00
  0.00000000E+00  0.00000000E+00  0.00000000E+00
  0.00000000E+00  0.00000000E+00  0.00000000E+00
  0.00000000E+00  0.00000000E+00  0.00000000E+00
  0.00000000E+00  0.00000000E+00  0.00000000E+00
  0.00000000E+00  0.00000000E+00  0.00000000E+00
  0.00000000E+00  0.00000000E+00  0.00000000E+00
