SiGeH16                                 
   1.00000000000000     
    20.0000000000000000    0.0000000000000000    0.0000000000000000
     0.0000000000000000   20.0000000000000000    0.0000000000000000
     0.0000000000000000    0.0000000000000000   20.0000000000000000
   Si   Ge   H 
     7     3    16
Direct
  0.4748305695443759  0.5545196473013227  0.3855730733575089
  0.3700321075959315  0.5386519595831547  0.4367402105380064
  0.5412469593899429  0.4582478520245404  0.3972616355657487
  0.3835814206598597  0.5150280815348242  0.5510712807436483
  0.5580104391557262  0.4348422769239466  0.5112235065752354
  0.5480879111408545  0.6228159404326959  0.5541241185250850
  0.6122775354783887  0.5248769410138837  0.5641505222083001
  0.5312098309050345  0.6469848366413748  0.4377383581909958
  0.4511324156069443  0.4165011178958873  0.5630956730377946
  0.4404410983403286  0.6061975611779910  0.6049115837781368
  0.4157353527528572  0.3554333818230886  0.5301452666447697
  0.4606635811001591  0.3997579220986943  0.6385547674097322
  0.5997447593745805  0.3728879519422938  0.5184366003368944
  0.6796697777645466  0.5355490818336058  0.5330463962476012
  0.6227953826431033  0.5087189825516486  0.6365904155481283
  0.6072461685194184  0.4689414917043263  0.3633895584615125
  0.5077169190320938  0.3999060814059662  0.3642553877816890
  0.4649590269261905  0.5697286390835696  0.3127479351394854
  0.5830656809087575  0.6803146065085228  0.5873434286666166
  0.4488157502778002  0.5909480204794505  0.6808544097104987
  0.3980987271284028  0.6713253465046366  0.5989559119179858
  0.3167388456100752  0.5042888511025612  0.5834738640472883
  0.3339446027413653  0.4820243175707299  0.4033608414521757
  0.3284281883605613  0.6004401915074025  0.4283287636477082
  0.4888719055780946  0.7118743059340034  0.4298550461939285
  0.5996250434645997  0.6595946134198829  0.4026884442735220
 
  0.00000000E+00  0.00000000E+00  0.00000000E+00
  0.00000000E+00  0.00000000E+00  0.00000000E+00
  0.00000000E+00  0.00000000E+00  0.00000000E+00
  0.00000000E+00  0.00000000E+00  0.00000000E+00
  0.00000000E+00  0.00000000E+00  0.00000000E+00
  0.00000000E+00  0.00000000E+00  0.00000000E+00
  0.00000000E+00  0.00000000E+00  0.00000000E+00
  0.00000000E+00  0.00000000E+00  0.00000000E+00
  0.00000000E+00  0.00000000E+00  0.00000000E+00
  0.00000000E+00  0.00000000E+00  0.00000000E+00
  0.00000000E+00  0.00000000E+00  0.00000000E+00
  0.00000000E+00  0.00000000E+00  0.00000000E+00
  0.00000000E+00  0.00000000E+00  0.00000000E+00
  0.00000000E+00  0.00000000E+00  0.00000000E+00
  0.00000000E+00  0.00000000E+00  0.00000000E+00
  0.00000000E+00  0.00000000E+00  0.00000000E+00
  0.00000000E+00  0.00000000E+00  0.00000000E+00
  0.00000000E+00  0.00000000E+00  0.00000000E+00
  0.00000000E+00  0.00000000E+00  0.00000000E+00
  0.00000000E+00  0.00000000E+00  0.00000000E+00
  0.00000000E+00  0.00000000E+00  0.00000000E+00
  0.00000000E+00  0.00000000E+00  0.00000000E+00
  0.00000000E+00  0.00000000E+00  0.00000000E+00
  0.00000000E+00  0.00000000E+00  0.00000000E+00
  0.00000000E+00  0.00000000E+00  0.00000000E+00
  0.00000000E+00  0.00000000E+00  0.00000000E+00
