SiGeH16                                 
   1.00000000000000     
    20.0000000000000000    0.0000000000000000    0.0000000000000000
     0.0000000000000000   20.0000000000000000    0.0000000000000000
     0.0000000000000000    0.0000000000000000   20.0000000000000000
   Si   Ge   H 
     8     2    16
Direct
  0.4748028977310241  0.5545159522195533  0.3853269321654267
  0.3703594405613799  0.5389897175211260  0.4370882208819822
  0.5412577607364994  0.4582335893485663  0.3972380035605596
  0.3849611434976268  0.5165026806092854  0.5515858879592770
  0.5581717021830812  0.4346565008512897  0.5111973561287328
  0.5462109619536619  0.6220763219730117  0.5546471816902780
  0.6117128578958173  0.5248911042024602  0.5642948114414565
  0.4408121233707618  0.6056493293557637  0.6041442494817204
  0.5307269854300927  0.6467902585025271  0.4381192965472849
  0.4513527040623444  0.4170805570270062  0.5632577467129067
  0.4150543017036057  0.3566179887309815  0.5301354767366959
  0.4608237468381660  0.3999159829304020  0.6386648775002968
  0.5998373728197279  0.3726075074965678  0.5183942711864660
  0.6788331068125046  0.5365700162816793  0.5330521829861397
  0.6226166719793653  0.5086631418038223  0.6366514857813499
  0.6072780242244491  0.4688885203941453  0.3633935674958622
  0.5077116116939990  0.3999219313808027  0.3641927024360925
  0.4650250766374313  0.5697793997355305  0.3124605697895646
  0.5811692988791393  0.6796509661851289  0.5878251603862594
  0.4490454514837197  0.5906778667007799  0.6771229475192300
  0.4000968952602264  0.6682810034653386  0.5980469644419131
  0.3181301948546036  0.5057145990823031  0.5840688145763764
  0.3341477020998340  0.4819357660644741  0.4046646211468214
  0.3285479962093802  0.6005863737749948  0.4283930786041452
  0.4886300145507789  0.7118371189997319  0.4299130939434903
  0.5996539565307657  0.6593658053627394  0.4030374988996689
 
  0.00000000E+00  0.00000000E+00  0.00000000E+00
  0.00000000E+00  0.00000000E+00  0.00000000E+00
  0.00000000E+00  0.00000000E+00  0.00000000E+00
  0.00000000E+00  0.00000000E+00  0.00000000E+00
  0.00000000E+00  0.00000000E+00  0.00000000E+00
  0.00000000E+00  0.00000000E+00  0.00000000E+00
  0.00000000E+00  0.00000000E+00  0.00000000E+00
  0.00000000E+00  0.00000000E+00  0.00000000E+00
  0.00000000E+00  0.00000000E+00  0.00000000E+00
  0.00000000E+00  0.00000000E+00  0.00000000E+00
  0.00000000E+00  0.00000000E+00  0.00000000E+00
  0.00000000E+00  0.00000000E+00  0.00000000E+00
  0.00000000E+00  0.00000000E+00  0.00000000E+00
  0.00000000E+00  0.00000000E+00  0.00000000E+00
  0.00000000E+00  0.00000000E+00  0.00000000E+00
  0.00000000E+00  0.00000000E+00  0.00000000E+00
  0.00000000E+00  0.00000000E+00  0.00000000E+00
  0.00000000E+00  0.00000000E+00  0.00000000E+00
  0.00000000E+00  0.00000000E+00  0.00000000E+00
  0.00000000E+00  0.00000000E+00  0.00000000E+00
  0.00000000E+00  0.00000000E+00  0.00000000E+00
  0.00000000E+00  0.00000000E+00  0.00000000E+00
  0.00000000E+00  0.00000000E+00  0.00000000E+00
  0.00000000E+00  0.00000000E+00  0.00000000E+00
  0.00000000E+00  0.00000000E+00  0.00000000E+00
  0.00000000E+00  0.00000000E+00  0.00000000E+00
