SYSTEM=SiGe
NSW=300
ENCUT=400
ISMEAR=0
EDIFFG=-0.01
LCHARG=F
LWAVE=F
LREAL=F
EDIFF=1e-06
#NPAR=2
ISIF=2
IBRION=5
NFREE=2
POTIM=0.02
