SiGeH16 
1
20.000000     0.000000     0.000000
0.000000     20.000000     0.000000
0.000000     0.000000     20.000000
Si Ge H
9     1       16
Direct
1.475471     0.556260     1.384653      
1.369078     0.539060     1.436412      
0.541791     1.457446     1.396136      
0.531116     0.647941     1.437496      
1.384619     0.514741     0.552435      
0.557368     1.433110     0.512150      
0.612997     0.524817     0.564966      
1.450957     1.415936     0.563883      
1.440284     0.606430     0.605243      
0.546692     0.623644     0.553518      
1.414901     1.356650     0.529403      
1.461170     1.400426     0.639108      
0.600348     1.369070     0.519578      
0.681827     0.536007     0.531187      
0.622804     0.509034     0.640189      
0.610800     1.468806     1.362782      
0.505508     1.398055     1.362077      
1.465384     0.572019     1.309464      
0.582755     0.683067     0.587750      
1.450525     0.590443     0.680364      
1.397320     0.670449     0.597535      
1.315662     0.503598     0.585965      
1.333228     1.479465     1.402252      
1.326291     0.603247     1.429126      
1.487923     0.711855     1.430208      
0.600151     0.658824     1.404037      
