SiGeH16                                 
   1.00000000000000     
    20.0000000000000000    0.0000000000000000    0.0000000000000000
     0.0000000000000000   20.0000000000000000    0.0000000000000000
     0.0000000000000000    0.0000000000000000   20.0000000000000000
   Si   Ge   H 
     6     4    16
Direct
  0.4746946444981646  0.5548225261943571  0.3844398301657748
  0.3697447408467838  0.5384666835780507  0.4348797026100968
  0.5405634786864013  0.4581936312341099  0.3955201391592595
  0.5486409286898848  0.6237158290312337  0.5545627140520679
  0.6129532052612774  0.5260603210878614  0.5654561505607347
  0.4504835555819824  0.4144964342375559  0.5642493759530964
  0.5311457699432793  0.6466892041745922  0.4378831618019490
  0.3837487163779443  0.5134114715136207  0.5516211101732864
  0.5568980431129091  0.4339305202398762  0.5121077456240428
  0.4414244357430590  0.6071471057973454  0.6061851004533096
  0.4165236493825972  0.3559715231005214  0.5321050097011977
  0.4598560348988414  0.3988470529038963  0.6368672713624193
  0.6012041319338834  0.3699949935536821  0.5189519098069226
  0.6801195056969007  0.5357958569975523  0.5336873558995450
  0.6239747331543910  0.5100591438825219  0.6378202051719342
  0.6070597302056910  0.4686999564824603  0.3626706398925776
  0.5074467198828216  0.3998748640559882  0.3620881985777942
  0.4654099875229534  0.5711426554516237  0.3117299874909278
  0.5836895392625721  0.6818680838285331  0.5866483583960687
  0.4494562756152760  0.5923321119725671  0.6822465880950404
  0.3981917637126884  0.6716019390136765  0.5996060433540791
  0.3139136770953925  0.5034866596909495  0.5851212784993436
  0.3332900089315700  0.4822606298627221  0.4012376257452104
  0.3281018643967570  0.6003050031119912  0.4276090252556841
  0.4889616255114504  0.7116740950001841  0.4298995414062929
  0.5994732340545212  0.6595517040025243  0.4017229307913345
 
  0.00000000E+00  0.00000000E+00  0.00000000E+00
  0.00000000E+00  0.00000000E+00  0.00000000E+00
  0.00000000E+00  0.00000000E+00  0.00000000E+00
  0.00000000E+00  0.00000000E+00  0.00000000E+00
  0.00000000E+00  0.00000000E+00  0.00000000E+00
  0.00000000E+00  0.00000000E+00  0.00000000E+00
  0.00000000E+00  0.00000000E+00  0.00000000E+00
  0.00000000E+00  0.00000000E+00  0.00000000E+00
  0.00000000E+00  0.00000000E+00  0.00000000E+00
  0.00000000E+00  0.00000000E+00  0.00000000E+00
  0.00000000E+00  0.00000000E+00  0.00000000E+00
  0.00000000E+00  0.00000000E+00  0.00000000E+00
  0.00000000E+00  0.00000000E+00  0.00000000E+00
  0.00000000E+00  0.00000000E+00  0.00000000E+00
  0.00000000E+00  0.00000000E+00  0.00000000E+00
  0.00000000E+00  0.00000000E+00  0.00000000E+00
  0.00000000E+00  0.00000000E+00  0.00000000E+00
  0.00000000E+00  0.00000000E+00  0.00000000E+00
  0.00000000E+00  0.00000000E+00  0.00000000E+00
  0.00000000E+00  0.00000000E+00  0.00000000E+00
  0.00000000E+00  0.00000000E+00  0.00000000E+00
  0.00000000E+00  0.00000000E+00  0.00000000E+00
  0.00000000E+00  0.00000000E+00  0.00000000E+00
  0.00000000E+00  0.00000000E+00  0.00000000E+00
  0.00000000E+00  0.00000000E+00  0.00000000E+00
  0.00000000E+00  0.00000000E+00  0.00000000E+00
