SiGeH16                                 
   1.00000000000000     
    20.0000000000000000    0.0000000000000000    0.0000000000000000
     0.0000000000000000   20.0000000000000000    0.0000000000000000
     0.0000000000000000    0.0000000000000000   20.0000000000000000
   Si   Ge   H 
     6     4    16
Direct
  0.4746043467410097  0.5548610618933369  0.3837880991613163
  0.3701518370057790  0.5388776164785832  0.4353820222922020
  0.5406675560302638  0.4582987333653431  0.3956259798582121
  0.6139264468432896  0.5245617692282388  0.5660347359384044
  0.4507647787615743  0.4152502846827552  0.5644236489312738
  0.4399489290615199  0.6067719796803493  0.6066050822192072
  0.5306336859226051  0.6474991431282956  0.4362897416306557
  0.3847431973029073  0.5148676749845231  0.5523282018975428
  0.5573642410405302  0.4332922154142363  0.5120831505662103
  0.5472827605979930  0.6238645800806519  0.5556329887003095
  0.4158739663222788  0.3573684699875589  0.5320540508258003
  0.4600064392635322  0.3990311633359002  0.6369627438679564
  0.6007451214801346  0.3686026088102924  0.5183604538752459
  0.6807850017100028  0.5353472381124287  0.5340484088188512
  0.6252806436046249  0.5084736642147174  0.6382779637230823
  0.6071304690792083  0.4686547388191458  0.3626507886957840
  0.5075101418593854  0.4000147466334607  0.3621756810292572
  0.4648136632134695  0.5701336516126565  0.3108822634131514
  0.5836711025516473  0.6844580981382684  0.5888947253444451
  0.4479959464551008  0.5922328449786515  0.6796151552565231
  0.3984493603685429  0.6687582419094953  0.5998882939460293
  0.3146617495585365  0.5037901039594976  0.5850641981426509
  0.3335906191704309  0.4822023997860973  0.4027257555171640
  0.3281822950106503  0.6004552896057908  0.4277028904323805
  0.4886196540200614  0.7125899973670305  0.4281424170680481
  0.5995660470249147  0.6601416837926984  0.4022775588482930
 
  0.00000000E+00  0.00000000E+00  0.00000000E+00
  0.00000000E+00  0.00000000E+00  0.00000000E+00
  0.00000000E+00  0.00000000E+00  0.00000000E+00
  0.00000000E+00  0.00000000E+00  0.00000000E+00
  0.00000000E+00  0.00000000E+00  0.00000000E+00
  0.00000000E+00  0.00000000E+00  0.00000000E+00
  0.00000000E+00  0.00000000E+00  0.00000000E+00
  0.00000000E+00  0.00000000E+00  0.00000000E+00
  0.00000000E+00  0.00000000E+00  0.00000000E+00
  0.00000000E+00  0.00000000E+00  0.00000000E+00
  0.00000000E+00  0.00000000E+00  0.00000000E+00
  0.00000000E+00  0.00000000E+00  0.00000000E+00
  0.00000000E+00  0.00000000E+00  0.00000000E+00
  0.00000000E+00  0.00000000E+00  0.00000000E+00
  0.00000000E+00  0.00000000E+00  0.00000000E+00
  0.00000000E+00  0.00000000E+00  0.00000000E+00
  0.00000000E+00  0.00000000E+00  0.00000000E+00
  0.00000000E+00  0.00000000E+00  0.00000000E+00
  0.00000000E+00  0.00000000E+00  0.00000000E+00
  0.00000000E+00  0.00000000E+00  0.00000000E+00
  0.00000000E+00  0.00000000E+00  0.00000000E+00
  0.00000000E+00  0.00000000E+00  0.00000000E+00
  0.00000000E+00  0.00000000E+00  0.00000000E+00
  0.00000000E+00  0.00000000E+00  0.00000000E+00
  0.00000000E+00  0.00000000E+00  0.00000000E+00
  0.00000000E+00  0.00000000E+00  0.00000000E+00
