SiGeH16                                 
   1.00000000000000     
    20.0000000000000000    0.0000000000000000    0.0000000000000000
     0.0000000000000000   20.0000000000000000    0.0000000000000000
     0.0000000000000000    0.0000000000000000   20.0000000000000000
   Si   Ge   H 
     6     4    16
Direct
  0.4748107418200718  0.5546532560418171  0.3851146367284954
  0.3705222796199195  0.5383831050086059  0.4370300626929264
  0.5406919782938786  0.4579780458656444  0.3973493061991107
  0.3849308134511702  0.5135722197500527  0.5511038004175219
  0.5558388218295320  0.4328197482247944  0.5112489782484460
  0.4511986977732363  0.4170715947001185  0.5626150423243601
  0.5308791478709409  0.6484115220210214  0.4354992784915837
  0.5480005095971521  0.6257948260028030  0.5547591970243033
  0.6141866037152255  0.5231405186855369  0.5651917099966681
  0.4384576919372307  0.6061734552946234  0.6061731719946550
  0.4162543640956642  0.3586445700676890  0.5310950887217700
  0.4607247638933316  0.4013603571906899  0.6353011027354754
  0.5966213889140448  0.3701194374777685  0.5178226931283092
  0.6841242367729521  0.5334557284016554  0.5325234500647298
  0.6256921605976160  0.5067596232504741  0.6404519938989566
  0.6073162729497312  0.4683752955454850  0.3645806767997115
  0.5072355789688530  0.4002270200093463  0.3630887235104368
  0.4644797733956096  0.5688196086264767  0.3121046032382608
  0.5843459092959549  0.6857032892305028  0.5892728740031288
  0.4473066033171236  0.5910505853046715  0.6820546588822722
  0.3946356670606264  0.6702597445360325  0.6000475059726327
  0.3178934793809987  0.5018179537665048  0.5828149070268225
  0.3342280489455050  0.4819775988621231  0.4034225592954641
  0.3285735588141208  0.6000735171162859  0.4295803971260312
  0.4884595932802469  0.7131387694234093  0.4267933759481437
  0.5995613144092573  0.6606186095958932  0.3998772055297954
 
  0.00000000E+00  0.00000000E+00  0.00000000E+00
  0.00000000E+00  0.00000000E+00  0.00000000E+00
  0.00000000E+00  0.00000000E+00  0.00000000E+00
  0.00000000E+00  0.00000000E+00  0.00000000E+00
  0.00000000E+00  0.00000000E+00  0.00000000E+00
  0.00000000E+00  0.00000000E+00  0.00000000E+00
  0.00000000E+00  0.00000000E+00  0.00000000E+00
  0.00000000E+00  0.00000000E+00  0.00000000E+00
  0.00000000E+00  0.00000000E+00  0.00000000E+00
  0.00000000E+00  0.00000000E+00  0.00000000E+00
  0.00000000E+00  0.00000000E+00  0.00000000E+00
  0.00000000E+00  0.00000000E+00  0.00000000E+00
  0.00000000E+00  0.00000000E+00  0.00000000E+00
  0.00000000E+00  0.00000000E+00  0.00000000E+00
  0.00000000E+00  0.00000000E+00  0.00000000E+00
  0.00000000E+00  0.00000000E+00  0.00000000E+00
  0.00000000E+00  0.00000000E+00  0.00000000E+00
  0.00000000E+00  0.00000000E+00  0.00000000E+00
  0.00000000E+00  0.00000000E+00  0.00000000E+00
  0.00000000E+00  0.00000000E+00  0.00000000E+00
  0.00000000E+00  0.00000000E+00  0.00000000E+00
  0.00000000E+00  0.00000000E+00  0.00000000E+00
  0.00000000E+00  0.00000000E+00  0.00000000E+00
  0.00000000E+00  0.00000000E+00  0.00000000E+00
  0.00000000E+00  0.00000000E+00  0.00000000E+00
  0.00000000E+00  0.00000000E+00  0.00000000E+00
