SiGeH16                                 
   1.00000000000000     
    20.0000000000000000    0.0000000000000000    0.0000000000000000
     0.0000000000000000   20.0000000000000000    0.0000000000000000
     0.0000000000000000    0.0000000000000000   20.0000000000000000
   Si   Ge   H 
     5     5    16
Direct
  0.4735295160828698  0.5564896701822981  0.3830752612402305
  0.3696764701258748  0.5393371465205934  0.4353082631040351
  0.6141833493745814  0.5245487726957958  0.5665296765511565
  0.4506628955937297  0.4150394257658193  0.5649499272999549
  0.4399143442869587  0.6067661807376163  0.6065738866996184
  0.5410460178540736  0.4577578384420132  0.3948945600671940
  0.5303761055711919  0.6480948725103545  0.4362069701438422
  0.3849464582168977  0.5148158730360625  0.5521644301989352
  0.5579357109656412  0.4323390136099337  0.5139134607451564
  0.5472038037006897  0.6236743166904305  0.5554413868551323
  0.4159261374079022  0.3573235468316074  0.5322269007828064
  0.4588631667036874  0.3988652185309015  0.6376290097921677
  0.6013658300455972  0.3676936748206554  0.5200253208253554
  0.6808623033497656  0.5352982899545207  0.5341978217068932
  0.6258424959501704  0.5094780168992757  0.6389897206800783
  0.6101755396913581  0.4681261796960728  0.3605282707674853
  0.5068164922239456  0.3970750873311426  0.3600127147983773
  0.4637460326313674  0.5717634232503035  0.3101753483356682
  0.5836059645429050  0.6842435419733380  0.5887360986501796
  0.4480399428723201  0.5922046710040965  0.6796004096713821
  0.3984526309275198  0.6687693883687776  0.5998627022322524
  0.3148831484884992  0.5037812194922398  0.5849142763322429
  0.3335177300930785  0.4824000189352060  0.4026617479281354
  0.3269032006552783  0.6004633380184959  0.4282905305897587
  0.4890859417478146  0.7137481991250176  0.4287541025089800
  0.5994087708962752  0.6603030755774353  0.4022542014929783
 
  0.00000000E+00  0.00000000E+00  0.00000000E+00
  0.00000000E+00  0.00000000E+00  0.00000000E+00
  0.00000000E+00  0.00000000E+00  0.00000000E+00
  0.00000000E+00  0.00000000E+00  0.00000000E+00
  0.00000000E+00  0.00000000E+00  0.00000000E+00
  0.00000000E+00  0.00000000E+00  0.00000000E+00
  0.00000000E+00  0.00000000E+00  0.00000000E+00
  0.00000000E+00  0.00000000E+00  0.00000000E+00
  0.00000000E+00  0.00000000E+00  0.00000000E+00
  0.00000000E+00  0.00000000E+00  0.00000000E+00
  0.00000000E+00  0.00000000E+00  0.00000000E+00
  0.00000000E+00  0.00000000E+00  0.00000000E+00
  0.00000000E+00  0.00000000E+00  0.00000000E+00
  0.00000000E+00  0.00000000E+00  0.00000000E+00
  0.00000000E+00  0.00000000E+00  0.00000000E+00
  0.00000000E+00  0.00000000E+00  0.00000000E+00
  0.00000000E+00  0.00000000E+00  0.00000000E+00
  0.00000000E+00  0.00000000E+00  0.00000000E+00
  0.00000000E+00  0.00000000E+00  0.00000000E+00
  0.00000000E+00  0.00000000E+00  0.00000000E+00
  0.00000000E+00  0.00000000E+00  0.00000000E+00
  0.00000000E+00  0.00000000E+00  0.00000000E+00
  0.00000000E+00  0.00000000E+00  0.00000000E+00
  0.00000000E+00  0.00000000E+00  0.00000000E+00
  0.00000000E+00  0.00000000E+00  0.00000000E+00
  0.00000000E+00  0.00000000E+00  0.00000000E+00
