SiGeH16                                 
   1.00000000000000     
    20.0000000000000000    0.0000000000000000    0.0000000000000000
     0.0000000000000000   20.0000000000000000    0.0000000000000000
     0.0000000000000000    0.0000000000000000   20.0000000000000000
   Si   Ge   H 
     6     4    16
Direct
  0.4738376558803381  0.5562742687125706  0.3841541299789526
  0.3695637839554422  0.5393557512448126  0.4351900192380569
  0.5565905102426569  0.4318405327376311  0.5129874540537429
  0.5458003601836126  0.6243626276691643  0.5547897710659981
  0.4520966056033089  0.4152453226902324  0.5636739228632308
  0.4413354481795437  0.6072582471211518  0.6053691455090728
  0.5407488727864518  0.4572679691088553  0.3966349440070545
  0.5300698732968883  0.6477833159596358  0.4379996651707074
  0.3860548582621206  0.5149727671779800  0.5517363526131618
  0.6119646576577367  0.5246456199342902  0.5654841745423340
  0.4163259478928012  0.3577432334647810  0.5316519685996397
  0.4605023268313104  0.3995527165175972  0.6364411298511925
  0.5991337963384566  0.3703627349287970  0.5195749113576653
  0.6815856513566843  0.5357411652229445  0.5323282937129079
  0.6245657836422254  0.5090095919478728  0.6407643931464477
  0.6099666123177698  0.4679899019756917  0.3625259664289260
  0.5064417164706185  0.3972512248324378  0.3607021432985462
  0.4652714594822811  0.5716328083314295  0.3111927930577281
  0.5816759161985345  0.6817770969030903  0.5871832312430953
  0.4496952336009130  0.5922573665773641  0.6782864965682123
  0.3988860011110873  0.6686672167762637  0.5991634008861837
  0.3165294373737595  0.5037410330085237  0.5855522290859838
  0.3334890831804600  0.4822954154127501  0.4027171516294388
  0.3268630610834649  0.6005287462461126  0.4283797787358523
  0.4887462813753487  0.7132587545545235  0.4293033648205977
  0.5992290656961856  0.6595845709434940  0.4031301685352892
 
  0.00000000E+00  0.00000000E+00  0.00000000E+00
  0.00000000E+00  0.00000000E+00  0.00000000E+00
  0.00000000E+00  0.00000000E+00  0.00000000E+00
  0.00000000E+00  0.00000000E+00  0.00000000E+00
  0.00000000E+00  0.00000000E+00  0.00000000E+00
  0.00000000E+00  0.00000000E+00  0.00000000E+00
  0.00000000E+00  0.00000000E+00  0.00000000E+00
  0.00000000E+00  0.00000000E+00  0.00000000E+00
  0.00000000E+00  0.00000000E+00  0.00000000E+00
  0.00000000E+00  0.00000000E+00  0.00000000E+00
  0.00000000E+00  0.00000000E+00  0.00000000E+00
  0.00000000E+00  0.00000000E+00  0.00000000E+00
  0.00000000E+00  0.00000000E+00  0.00000000E+00
  0.00000000E+00  0.00000000E+00  0.00000000E+00
  0.00000000E+00  0.00000000E+00  0.00000000E+00
  0.00000000E+00  0.00000000E+00  0.00000000E+00
  0.00000000E+00  0.00000000E+00  0.00000000E+00
  0.00000000E+00  0.00000000E+00  0.00000000E+00
  0.00000000E+00  0.00000000E+00  0.00000000E+00
  0.00000000E+00  0.00000000E+00  0.00000000E+00
  0.00000000E+00  0.00000000E+00  0.00000000E+00
  0.00000000E+00  0.00000000E+00  0.00000000E+00
  0.00000000E+00  0.00000000E+00  0.00000000E+00
  0.00000000E+00  0.00000000E+00  0.00000000E+00
  0.00000000E+00  0.00000000E+00  0.00000000E+00
  0.00000000E+00  0.00000000E+00  0.00000000E+00
