SiGeH16                                 
   1.00000000000000     
    20.0000000000000000    0.0000000000000000    0.0000000000000000
     0.0000000000000000   20.0000000000000000    0.0000000000000000
     0.0000000000000000    0.0000000000000000   20.0000000000000000
   Si   Ge   H 
     6     4    16
Direct
  0.4747337482962166  0.5546180809120642  0.3851257508795030
  0.3701862638379154  0.5384584053166677  0.4367613407945825
  0.5411811850390364  0.4582342257801812  0.3949589053776421
  0.3831973097224548  0.5150162286856954  0.5512360501475726
  0.5482942867772991  0.6232111868559471  0.5543526151113767
  0.6137125077065662  0.5262609092757558  0.5653408859744502
  0.5313521427963650  0.6467333357770997  0.4377839709495603
  0.5586064913277866  0.4340424043822892  0.5113219489274456
  0.4493332410829964  0.4156534129755087  0.5641700663450422
  0.4405872674257978  0.6059972639451985  0.6049174444974668
  0.4140980259950950  0.3545420292185995  0.5310782404064582
  0.4590806720522664  0.3989612798440021  0.6396281061109903
  0.6018519414631243  0.3694979535023890  0.5188960746482820
  0.6810380646411147  0.5368912122621126  0.5341587823926943
  0.6241457425578076  0.5100391636764670  0.6377343993154696
  0.6071908178967220  0.4689927194524728  0.3612003389952960
  0.5076454417394487  0.3998801038472237  0.3620338701817545
  0.4641693333795729  0.5708335794635175  0.3126010048948729
  0.5823575411022404  0.6814790353436493  0.5872294069272854
  0.4487770645494962  0.5909537459639296  0.6809244633694362
  0.3982573745104503  0.6711458500264413  0.5989471141734413
  0.3159893227554562  0.5054396210490140  0.5832796717431918
  0.3338975878543735  0.4819950778900619  0.4033343187585388
  0.3286336347300960  0.6002791161110466  0.4283643325403830
  0.4889737566182006  0.7116242387924103  0.4299105127079059
  0.5996792341420871  0.6596198196502527  0.4016273838293478
 
  0.00000000E+00  0.00000000E+00  0.00000000E+00
  0.00000000E+00  0.00000000E+00  0.00000000E+00
  0.00000000E+00  0.00000000E+00  0.00000000E+00
  0.00000000E+00  0.00000000E+00  0.00000000E+00
  0.00000000E+00  0.00000000E+00  0.00000000E+00
  0.00000000E+00  0.00000000E+00  0.00000000E+00
  0.00000000E+00  0.00000000E+00  0.00000000E+00
  0.00000000E+00  0.00000000E+00  0.00000000E+00
  0.00000000E+00  0.00000000E+00  0.00000000E+00
  0.00000000E+00  0.00000000E+00  0.00000000E+00
  0.00000000E+00  0.00000000E+00  0.00000000E+00
  0.00000000E+00  0.00000000E+00  0.00000000E+00
  0.00000000E+00  0.00000000E+00  0.00000000E+00
  0.00000000E+00  0.00000000E+00  0.00000000E+00
  0.00000000E+00  0.00000000E+00  0.00000000E+00
  0.00000000E+00  0.00000000E+00  0.00000000E+00
  0.00000000E+00  0.00000000E+00  0.00000000E+00
  0.00000000E+00  0.00000000E+00  0.00000000E+00
  0.00000000E+00  0.00000000E+00  0.00000000E+00
  0.00000000E+00  0.00000000E+00  0.00000000E+00
  0.00000000E+00  0.00000000E+00  0.00000000E+00
  0.00000000E+00  0.00000000E+00  0.00000000E+00
  0.00000000E+00  0.00000000E+00  0.00000000E+00
  0.00000000E+00  0.00000000E+00  0.00000000E+00
  0.00000000E+00  0.00000000E+00  0.00000000E+00
  0.00000000E+00  0.00000000E+00  0.00000000E+00
