SiGeH16                                 
   1.00000000000000     
    20.0000000000000000    0.0000000000000000    0.0000000000000000
     0.0000000000000000   20.0000000000000000    0.0000000000000000
     0.0000000000000000    0.0000000000000000   20.0000000000000000
   Si   Ge   H 
     6     4    16
Direct
  0.4747337482962173  0.5546180809120671  0.3851257508795032
  0.3701862638379151  0.5384584053166662  0.4367613407945801
  0.5411811850390381  0.4582342257801819  0.3949589053776405
  0.3831973097224582  0.5150162286856931  0.5512360501475719
  0.5482942867772965  0.6232111868559499  0.5543526151113736
  0.6137125077065688  0.5262609092757572  0.5653408859744536
  0.5313521427963617  0.6467333357770975  0.4377839709495630
  0.5586064913277892  0.4340424043822915  0.5113219489274462
  0.4493332410829977  0.4156534129755075  0.5641700663450434
  0.4405872674257981  0.6059972639451988  0.6049174444974683
  0.4140980259950983  0.3545420292185960  0.5310782404064601
  0.4590806720522640  0.3989612798440009  0.6396281061109877
  0.6018519414631263  0.3694979535023876  0.5188960746482794
  0.6810380646411182  0.5368912122621143  0.5341587823926941
  0.6241457425578052  0.5100391636764701  0.6377343993154710
  0.6071908178967226  0.4689927194524726  0.3612003389952929
  0.5076454417394488  0.3998801038472244  0.3620338701817561
  0.4641693333795761  0.5708335794635183  0.3126010048948751
  0.5823575411022397  0.6814790353436515  0.5872294069272859
  0.4487770645494937  0.5909537459639271  0.6809244633694378
  0.3982573745104495  0.6711458500264433  0.5989471141734395
  0.3159893227554565  0.5054396210490163  0.5832796717431931
  0.3338975878543713  0.4819950778900621  0.4033343187585376
  0.3286336347300958  0.6002791161110484  0.4283643325403854
  0.4889737566182011  0.7116242387924094  0.4299105127079086
  0.5996792341420861  0.6596198196502526  0.4026273838293490
 
  0.00000000E+00  0.00000000E+00  0.00000000E+00
  0.00000000E+00  0.00000000E+00  0.00000000E+00
  0.00000000E+00  0.00000000E+00  0.00000000E+00
  0.00000000E+00  0.00000000E+00  0.00000000E+00
  0.00000000E+00  0.00000000E+00  0.00000000E+00
  0.00000000E+00  0.00000000E+00  0.00000000E+00
  0.00000000E+00  0.00000000E+00  0.00000000E+00
  0.00000000E+00  0.00000000E+00  0.00000000E+00
  0.00000000E+00  0.00000000E+00  0.00000000E+00
  0.00000000E+00  0.00000000E+00  0.00000000E+00
  0.00000000E+00  0.00000000E+00  0.00000000E+00
  0.00000000E+00  0.00000000E+00  0.00000000E+00
  0.00000000E+00  0.00000000E+00  0.00000000E+00
  0.00000000E+00  0.00000000E+00  0.00000000E+00
  0.00000000E+00  0.00000000E+00  0.00000000E+00
  0.00000000E+00  0.00000000E+00  0.00000000E+00
  0.00000000E+00  0.00000000E+00  0.00000000E+00
  0.00000000E+00  0.00000000E+00  0.00000000E+00
  0.00000000E+00  0.00000000E+00  0.00000000E+00
  0.00000000E+00  0.00000000E+00  0.00000000E+00
  0.00000000E+00  0.00000000E+00  0.00000000E+00
  0.00000000E+00  0.00000000E+00  0.00000000E+00
  0.00000000E+00  0.00000000E+00  0.00000000E+00
  0.00000000E+00  0.00000000E+00  0.00000000E+00
  0.00000000E+00  0.00000000E+00  0.00000000E+00
  0.00000000E+00  0.00000000E+00  0.00000000E+00
