SiGeH16                                 
   1.00000000000000     
    20.0000000000000000    0.0000000000000000    0.0000000000000000
     0.0000000000000000   20.0000000000000000    0.0000000000000000
     0.0000000000000000    0.0000000000000000   20.0000000000000000
   Si   Ge   H 
     6     4    16
Direct
  0.4756978642633385  0.5559781080207742  0.3860924222230580
  0.3711352681210727  0.5385586001811049  0.4373293415497628
  0.5408713863287602  0.4585544214573716  0.3953734312948072
  0.5306891644126779  0.6473805655406437  0.4359509715189986
  0.3843642861911150  0.5134429455800742  0.5514118150777492
  0.4493511280650182  0.4162438315038415  0.5637779936054343
  0.5565121482062025  0.4317429988572030  0.5114063351995597
  0.5477070567282780  0.6260917225680913  0.5529757336039225
  0.6154726985703078  0.5246599908078124  0.5658312420155767
  0.4386762005724094  0.6060492061275298  0.6056253409735675
  0.4144198177460581  0.3578812461351788  0.5321776608384070
  0.4589036408496483  0.4006610284301431  0.6364033172296573
  0.5989519963417251  0.3665500146967062  0.5183103947839101
  0.6856275505485598  0.5345365615275455  0.5333960083522697
  0.6264926531352302  0.5090117721201750  0.6413320749023725
  0.6074067130965304  0.4686597237710757  0.3625535090034973
  0.5065601930306087  0.4016378602260957  0.3607466622200022
  0.4645969979287230  0.5712181059576551  0.3133679234825451
  0.5830747575376094  0.6867703209541816  0.5871797934004022
  0.4483208883528818  0.5913322294336112  0.6814986532175951
  0.3945570701332528  0.6700307899619062  0.5999311184668059
  0.3169065616368201  0.5027386112343351  0.5826660562607771
  0.3355439386105203  0.4822830791019044  0.4028421649893943
  0.3289630291012955  0.6000499714284757  0.4298737669339445
  0.4894740161534585  0.7093857869119944  0.4274712930747739
  0.5966929743378770  0.6589505074645601  0.4013919757812138
 
  0.00000000E+00  0.00000000E+00  0.00000000E+00
  0.00000000E+00  0.00000000E+00  0.00000000E+00
  0.00000000E+00  0.00000000E+00  0.00000000E+00
  0.00000000E+00  0.00000000E+00  0.00000000E+00
  0.00000000E+00  0.00000000E+00  0.00000000E+00
  0.00000000E+00  0.00000000E+00  0.00000000E+00
  0.00000000E+00  0.00000000E+00  0.00000000E+00
  0.00000000E+00  0.00000000E+00  0.00000000E+00
  0.00000000E+00  0.00000000E+00  0.00000000E+00
  0.00000000E+00  0.00000000E+00  0.00000000E+00
  0.00000000E+00  0.00000000E+00  0.00000000E+00
  0.00000000E+00  0.00000000E+00  0.00000000E+00
  0.00000000E+00  0.00000000E+00  0.00000000E+00
  0.00000000E+00  0.00000000E+00  0.00000000E+00
  0.00000000E+00  0.00000000E+00  0.00000000E+00
  0.00000000E+00  0.00000000E+00  0.00000000E+00
  0.00000000E+00  0.00000000E+00  0.00000000E+00
  0.00000000E+00  0.00000000E+00  0.00000000E+00
  0.00000000E+00  0.00000000E+00  0.00000000E+00
  0.00000000E+00  0.00000000E+00  0.00000000E+00
  0.00000000E+00  0.00000000E+00  0.00000000E+00
  0.00000000E+00  0.00000000E+00  0.00000000E+00
  0.00000000E+00  0.00000000E+00  0.00000000E+00
  0.00000000E+00  0.00000000E+00  0.00000000E+00
  0.00000000E+00  0.00000000E+00  0.00000000E+00
  0.00000000E+00  0.00000000E+00  0.00000000E+00
