SiGeH16                                 
   1.00000000000000     
    20.0000000000000000    0.0000000000000000    0.0000000000000000
     0.0000000000000000   20.0000000000000000    0.0000000000000000
     0.0000000000000000    0.0000000000000000   20.0000000000000000
   Si   Ge   H 
     6     4    16
Direct
  0.4748107418200696  0.5546532560418196  0.3851146367284959
  0.3705222796199204  0.5383831050086040  0.4370300626929274
  0.5406919782938777  0.4579780458656433  0.3973493061991101
  0.3849308134511671  0.5135722197500504  0.5511038004175202
  0.5558388218295333  0.4328197482247911  0.5112489782484455
  0.4511986977732356  0.4170715947001165  0.5626150423243622
  0.5308791478709376  0.6484115220210239  0.4354992784915818
  0.5480005095971491  0.6257948260027999  0.5547591970243023
  0.6141866037152256  0.5231405186855348  0.5651917099966679
  0.4384576919372342  0.6061734552946199  0.6061731719946521
  0.4162543640956665  0.3586445700676875  0.5310950887217667
  0.4607247638933301  0.4013603571906891  0.6353011027354742
  0.5966213889140474  0.3701194374777693  0.5178226931283093
  0.6841242367729530  0.5334557284016546  0.5325234500647302
  0.6256921605976172  0.5067596232504754  0.6404519938989562
  0.6073162729497309  0.4683752955454855  0.3645806767997083
  0.5072355789688539  0.4002270200093472  0.3630887235104349
  0.4644797733956131  0.5688196086264764  0.3121046032382588
  0.5843459092959552  0.6857032892305013  0.5892728740031296
  0.4473066033171234  0.5910505853046748  0.6820546588822747
  0.3946356670606275  0.6702597445360309  0.6000475059726355
  0.3178934793809970  0.5018179537665025  0.5828149070268206
  0.3342280489455025  0.4819775988621220  0.4034225592954627
  0.3285735588141190  0.6000735171162844  0.4295803971260296
  0.4884595932802491  0.7131387694234066  0.4267933759481444
  0.5995613144092582  0.6606186095958935  0.4008772055297964
 
  0.00000000E+00  0.00000000E+00  0.00000000E+00
  0.00000000E+00  0.00000000E+00  0.00000000E+00
  0.00000000E+00  0.00000000E+00  0.00000000E+00
  0.00000000E+00  0.00000000E+00  0.00000000E+00
  0.00000000E+00  0.00000000E+00  0.00000000E+00
  0.00000000E+00  0.00000000E+00  0.00000000E+00
  0.00000000E+00  0.00000000E+00  0.00000000E+00
  0.00000000E+00  0.00000000E+00  0.00000000E+00
  0.00000000E+00  0.00000000E+00  0.00000000E+00
  0.00000000E+00  0.00000000E+00  0.00000000E+00
  0.00000000E+00  0.00000000E+00  0.00000000E+00
  0.00000000E+00  0.00000000E+00  0.00000000E+00
  0.00000000E+00  0.00000000E+00  0.00000000E+00
  0.00000000E+00  0.00000000E+00  0.00000000E+00
  0.00000000E+00  0.00000000E+00  0.00000000E+00
  0.00000000E+00  0.00000000E+00  0.00000000E+00
  0.00000000E+00  0.00000000E+00  0.00000000E+00
  0.00000000E+00  0.00000000E+00  0.00000000E+00
  0.00000000E+00  0.00000000E+00  0.00000000E+00
  0.00000000E+00  0.00000000E+00  0.00000000E+00
  0.00000000E+00  0.00000000E+00  0.00000000E+00
  0.00000000E+00  0.00000000E+00  0.00000000E+00
  0.00000000E+00  0.00000000E+00  0.00000000E+00
  0.00000000E+00  0.00000000E+00  0.00000000E+00
  0.00000000E+00  0.00000000E+00  0.00000000E+00
  0.00000000E+00  0.00000000E+00  0.00000000E+00
