SiGeH16                                 
   1.00000000000000     
    20.0000000000000000    0.0000000000000000    0.0000000000000000
     0.0000000000000000   20.0000000000000000    0.0000000000000000
     0.0000000000000000    0.0000000000000000   20.0000000000000000
   Si   Ge   H 
     6     4    16
Direct
  0.4746822684953855  0.5546559064631538  0.3845275459116237
  0.3706826929183649  0.5389716193444585  0.4372607457021758
  0.5412987317193512  0.4583390642007643  0.3951388307701080
  0.3842234019734150  0.5164120209509875  0.5519362795409180
  0.6147596813517993  0.5247168146576584  0.5658950613939098
  0.4390999150795736  0.6056343586318675  0.6053640156637954
  0.5308619643019696  0.6475859020086432  0.4361632645638096
  0.5590883084183389  0.4333826962595708  0.5113334692520084
  0.5469464510914435  0.6232493110841659  0.5553760708979780
  0.4497527556167285  0.4163707271069583  0.5644327469272312
  0.4134558194510731  0.3559913829022321  0.5311958703524340
  0.4591612074873197  0.3990812834799868  0.6397911537839676
  0.6013982483714742  0.3681269741178355  0.5181738895460626
  0.6817991216375958  0.5364816189500843  0.5346746062858259
  0.6256095429493342  0.5084099860806788  0.6381708354952877
  0.6071485882026195  0.4690084497126463  0.3610505633370025
  0.5077374978396350  0.4000636511441016  0.3620829343024710
  0.4634854032791011  0.5696923424261300  0.3117953279979133
  0.5822474343602693  0.6839739688854607  0.5894519527306841
  0.4470432660003070  0.5906863793801094  0.6783410080293919
  0.3983678941558040  0.6682328061779117  0.5992588265192040
  0.3167278442311172  0.5059754347540988  0.5831897879746748
  0.3342285113408963  0.4820331888004219  0.4048847223668517
  0.3287610580471210  0.6004718400804663  0.4283334335443669
  0.4886759640264629  0.7125646823297771  0.4280290608196822
  0.5997264276535006  0.6602875900698209  0.4010649962906334
 
  0.00000000E+00  0.00000000E+00  0.00000000E+00
  0.00000000E+00  0.00000000E+00  0.00000000E+00
  0.00000000E+00  0.00000000E+00  0.00000000E+00
  0.00000000E+00  0.00000000E+00  0.00000000E+00
  0.00000000E+00  0.00000000E+00  0.00000000E+00
  0.00000000E+00  0.00000000E+00  0.00000000E+00
  0.00000000E+00  0.00000000E+00  0.00000000E+00
  0.00000000E+00  0.00000000E+00  0.00000000E+00
  0.00000000E+00  0.00000000E+00  0.00000000E+00
  0.00000000E+00  0.00000000E+00  0.00000000E+00
  0.00000000E+00  0.00000000E+00  0.00000000E+00
  0.00000000E+00  0.00000000E+00  0.00000000E+00
  0.00000000E+00  0.00000000E+00  0.00000000E+00
  0.00000000E+00  0.00000000E+00  0.00000000E+00
  0.00000000E+00  0.00000000E+00  0.00000000E+00
  0.00000000E+00  0.00000000E+00  0.00000000E+00
  0.00000000E+00  0.00000000E+00  0.00000000E+00
  0.00000000E+00  0.00000000E+00  0.00000000E+00
  0.00000000E+00  0.00000000E+00  0.00000000E+00
  0.00000000E+00  0.00000000E+00  0.00000000E+00
  0.00000000E+00  0.00000000E+00  0.00000000E+00
  0.00000000E+00  0.00000000E+00  0.00000000E+00
  0.00000000E+00  0.00000000E+00  0.00000000E+00
  0.00000000E+00  0.00000000E+00  0.00000000E+00
  0.00000000E+00  0.00000000E+00  0.00000000E+00
  0.00000000E+00  0.00000000E+00  0.00000000E+00
