SiGeH16                                 
   1.00000000000000     
    20.0000000000000000    0.0000000000000000    0.0000000000000000
     0.0000000000000000   20.0000000000000000    0.0000000000000000
     0.0000000000000000    0.0000000000000000   20.0000000000000000
   Si   Ge   H 
     6     4    16
Direct
  0.4757368325918991  0.5558384124000011  0.3866820782804927
  0.3706023163362366  0.5392221588346008  0.4371150630362542
  0.5412929357699515  0.4585616947715003  0.3973178545567513
  0.5305624311195603  0.6475404081508180  0.4359024439873920
  0.3831734108298124  0.5148523224184524  0.5513343390266153
  0.5578611982805569  0.4323005588091370  0.5106044492600941
  0.5473858204903681  0.6255037838738466  0.5527032157694511
  0.6145663271758582  0.5234387558772496  0.5646197571079916
  0.4509186351033295  0.4162510420327977  0.5630937049404080
  0.4382592088246118  0.6067532932466111  0.6057354501231221
  0.4146050149255182  0.3554095738857109  0.5306763351089420
  0.4605824902022457  0.3994862144269519  0.6385346066537573
  0.5986423926358845  0.3695813288687663  0.5170126415952934
  0.6848932897276856  0.5343992862053488  0.5328962927685712
  0.6254072329834064  0.5077659582470806  0.6401445611923576
  0.6073558888998576  0.4689680062733466  0.3634558865980908
  0.5067561283915871  0.4015581616458443  0.3629992482101903
  0.4653625769972574  0.5699168282928424  0.3136196970292953
  0.5837256237055813  0.6853522325335906  0.5872918678214037
  0.4481101830569519  0.5915427700654481  0.6814908712346454
  0.3950412988202515  0.6713846516265519  0.6005063056110906
  0.3160647594650838  0.5031107640311362  0.5828971478307554
  0.3354583552725891  0.4825054070577361  0.4029366387479709
  0.3285745854633157  0.6006892603247340  0.4284643639556596
  0.4894095930323971  0.7095684923342844  0.4274457272215380
  0.5966214698981951  0.6588986337656169  0.4024364523318636
 
  0.00000000E+00  0.00000000E+00  0.00000000E+00
  0.00000000E+00  0.00000000E+00  0.00000000E+00
  0.00000000E+00  0.00000000E+00  0.00000000E+00
  0.00000000E+00  0.00000000E+00  0.00000000E+00
  0.00000000E+00  0.00000000E+00  0.00000000E+00
  0.00000000E+00  0.00000000E+00  0.00000000E+00
  0.00000000E+00  0.00000000E+00  0.00000000E+00
  0.00000000E+00  0.00000000E+00  0.00000000E+00
  0.00000000E+00  0.00000000E+00  0.00000000E+00
  0.00000000E+00  0.00000000E+00  0.00000000E+00
  0.00000000E+00  0.00000000E+00  0.00000000E+00
  0.00000000E+00  0.00000000E+00  0.00000000E+00
  0.00000000E+00  0.00000000E+00  0.00000000E+00
  0.00000000E+00  0.00000000E+00  0.00000000E+00
  0.00000000E+00  0.00000000E+00  0.00000000E+00
  0.00000000E+00  0.00000000E+00  0.00000000E+00
  0.00000000E+00  0.00000000E+00  0.00000000E+00
  0.00000000E+00  0.00000000E+00  0.00000000E+00
  0.00000000E+00  0.00000000E+00  0.00000000E+00
  0.00000000E+00  0.00000000E+00  0.00000000E+00
  0.00000000E+00  0.00000000E+00  0.00000000E+00
  0.00000000E+00  0.00000000E+00  0.00000000E+00
  0.00000000E+00  0.00000000E+00  0.00000000E+00
  0.00000000E+00  0.00000000E+00  0.00000000E+00
  0.00000000E+00  0.00000000E+00  0.00000000E+00
  0.00000000E+00  0.00000000E+00  0.00000000E+00
