SiGeH16                                 
   1.00000000000000     
    20.0000000000000000    0.0000000000000000    0.0000000000000000
     0.0000000000000000   20.0000000000000000    0.0000000000000000
     0.0000000000000000    0.0000000000000000   20.0000000000000000
   Si   Ge   H 
     6     4    16
Direct
  0.4755508735570585  0.5561251410724893  0.3854461854910860
  0.3702798025812144  0.5390332245282273  0.4352085848960873
  0.5408033275484690  0.4589159992227528  0.3959566978816197
  0.5306962382305431  0.6468219613252799  0.4362802240193807
  0.6143512553674569  0.5246716357102087  0.5654552726554744
  0.4505801002008381  0.4146156963604097  0.5643571950989672
  0.3831386069513903  0.5132214256660530  0.5519300062859628
  0.5572831564986983  0.4332417513599786  0.5122187979562076
  0.5486639123282149  0.6244529797030911  0.5530370044179898
  0.4396519557866087  0.6073605395563179  0.6068330801033500
  0.4166328602557234  0.3560920454854345  0.5321492170936883
  0.4598441874718470  0.3987954637712592  0.6369481755077876
  0.6006876886782341  0.3685959876097923  0.5184113604814999
  0.6816694647494174  0.5341783330400648  0.5339376205511943
  0.6248066816775449  0.5096685909702308  0.6380524763204382
  0.6072289487125562  0.4688861461905073  0.3627966233538017
  0.5068028219851343  0.4013764925310053  0.3621364070459766
  0.4657419305509988  0.5714481513397579  0.3125153329190037
  0.5849880890849645  0.6850217575669081  0.5864493534903965
  0.4489550552289328  0.5927449610594235  0.6827770601766194
  0.3963746300035221  0.6718388232833624  0.6006133032013723
  0.3130274199028983  0.5022738533994513  0.5846255455890268
  0.3347505102863907  0.4827402919258634  0.4007365919125495
  0.3281674881560263  0.6005348624927475  0.4277477597030874
  0.4897345893678461  0.7090895751625362  0.4288088134900232
  0.5965584048374643  0.6586543096668516  0.4024883103574067
 
  0.00000000E+00  0.00000000E+00  0.00000000E+00
  0.00000000E+00  0.00000000E+00  0.00000000E+00
  0.00000000E+00  0.00000000E+00  0.00000000E+00
  0.00000000E+00  0.00000000E+00  0.00000000E+00
  0.00000000E+00  0.00000000E+00  0.00000000E+00
  0.00000000E+00  0.00000000E+00  0.00000000E+00
  0.00000000E+00  0.00000000E+00  0.00000000E+00
  0.00000000E+00  0.00000000E+00  0.00000000E+00
  0.00000000E+00  0.00000000E+00  0.00000000E+00
  0.00000000E+00  0.00000000E+00  0.00000000E+00
  0.00000000E+00  0.00000000E+00  0.00000000E+00
  0.00000000E+00  0.00000000E+00  0.00000000E+00
  0.00000000E+00  0.00000000E+00  0.00000000E+00
  0.00000000E+00  0.00000000E+00  0.00000000E+00
  0.00000000E+00  0.00000000E+00  0.00000000E+00
  0.00000000E+00  0.00000000E+00  0.00000000E+00
  0.00000000E+00  0.00000000E+00  0.00000000E+00
  0.00000000E+00  0.00000000E+00  0.00000000E+00
  0.00000000E+00  0.00000000E+00  0.00000000E+00
  0.00000000E+00  0.00000000E+00  0.00000000E+00
  0.00000000E+00  0.00000000E+00  0.00000000E+00
  0.00000000E+00  0.00000000E+00  0.00000000E+00
  0.00000000E+00  0.00000000E+00  0.00000000E+00
  0.00000000E+00  0.00000000E+00  0.00000000E+00
  0.00000000E+00  0.00000000E+00  0.00000000E+00
  0.00000000E+00  0.00000000E+00  0.00000000E+00
