SiGeH16                                 
   1.00000000000000     
    20.0000000000000000    0.0000000000000000    0.0000000000000000
     0.0000000000000000   20.0000000000000000    0.0000000000000000
     0.0000000000000000    0.0000000000000000   20.0000000000000000
   Si   Ge   H 
     6     4    16
Direct
  0.4746395363083922  0.5545968262462750  0.3844606745827660
  0.3696694578047184  0.5391227501879895  0.4350611629406994
  0.5410072826382476  0.4581535513641312  0.3951116584378048
  0.5466143652379060  0.6226950428343202  0.5551292902137329
  0.6128860401479904  0.5261623433497701  0.5655518030443538
  0.4415507763581629  0.6071331576695460  0.6055078831382278
  0.5306236967649414  0.6464951124984040  0.4382784723350074
  0.3836368730549676  0.5162439889090397  0.5522505734108741
  0.5589778739313797  0.4333736212536404  0.5113682061114505
  0.4503020072221067  0.4140285561714956  0.5649175626479708
  0.4140279833418672  0.3536550088626578  0.5317269611325399
  0.4598085420749700  0.3969734026511631  0.6402903124273295
  0.6034684904511012  0.3695688060242655  0.5180744409085778
  0.6799565777835656  0.5382833688815282  0.5343690309112401
  0.6240631243730728  0.5100037671368203  0.6378283778976510
  0.6068451075874968  0.4691288529751739  0.3610199360353372
  0.5077035684117962  0.3998716820957109  0.3618785707970768
  0.4654230440532794  0.5709773431735008  0.3117494719514041
  0.5816007215388626  0.6808973499876222  0.5872000731345776
  0.4496355253859523  0.5924138170342225  0.6785003243589561
  0.4012064535135640  0.6700024406456280  0.5993693672093608
  0.3137379039072784  0.5064910533271521  0.5856299360291826
  0.3332743824250733  0.4823031085966086  0.4025507518138804
  0.3281008328533213  0.6008326603972743  0.4260246260879851
  0.4887316518790403  0.7116663912741279  0.4299378185626632
  0.5994781809509400  0.6593259964519377  0.4041297138793458
 
  0.00000000E+00  0.00000000E+00  0.00000000E+00
  0.00000000E+00  0.00000000E+00  0.00000000E+00
  0.00000000E+00  0.00000000E+00  0.00000000E+00
  0.00000000E+00  0.00000000E+00  0.00000000E+00
  0.00000000E+00  0.00000000E+00  0.00000000E+00
  0.00000000E+00  0.00000000E+00  0.00000000E+00
  0.00000000E+00  0.00000000E+00  0.00000000E+00
  0.00000000E+00  0.00000000E+00  0.00000000E+00
  0.00000000E+00  0.00000000E+00  0.00000000E+00
  0.00000000E+00  0.00000000E+00  0.00000000E+00
  0.00000000E+00  0.00000000E+00  0.00000000E+00
  0.00000000E+00  0.00000000E+00  0.00000000E+00
  0.00000000E+00  0.00000000E+00  0.00000000E+00
  0.00000000E+00  0.00000000E+00  0.00000000E+00
  0.00000000E+00  0.00000000E+00  0.00000000E+00
  0.00000000E+00  0.00000000E+00  0.00000000E+00
  0.00000000E+00  0.00000000E+00  0.00000000E+00
  0.00000000E+00  0.00000000E+00  0.00000000E+00
  0.00000000E+00  0.00000000E+00  0.00000000E+00
  0.00000000E+00  0.00000000E+00  0.00000000E+00
  0.00000000E+00  0.00000000E+00  0.00000000E+00
  0.00000000E+00  0.00000000E+00  0.00000000E+00
  0.00000000E+00  0.00000000E+00  0.00000000E+00
  0.00000000E+00  0.00000000E+00  0.00000000E+00
  0.00000000E+00  0.00000000E+00  0.00000000E+00
  0.00000000E+00  0.00000000E+00  0.00000000E+00
