SiGeH16                                 
   1.00000000000000     
    20.0000000000000000    0.0000000000000000    0.0000000000000000
     0.0000000000000000   20.0000000000000000    0.0000000000000000
     0.0000000000000000    0.0000000000000000   20.0000000000000000
   Si   Ge   H 
     5     5    16
Direct
  0.4735295160828699  0.5564896701823017  0.3830752612402293
  0.3696764701258743  0.5393371465205945  0.4353082631040337
  0.6141833493745850  0.5245487726957947  0.5665296765511556
  0.4506628955937302  0.4150394257658192  0.5649499272999563
  0.4399143442869615  0.6067661807376155  0.6065738866996213
  0.5410460178540717  0.4577578384420136  0.3948945600671934
  0.5303761055711931  0.6480948725103559  0.4362069701438429
  0.3849464582168949  0.5148158730360635  0.5521644301989355
  0.5579357109656442  0.4323390136099334  0.5139134607451581
  0.5472038037006897  0.6236743166904333  0.5554413868551293
  0.4159261374079009  0.3573235468316085  0.5322269007828098
  0.4588631667036864  0.3988652185309007  0.6376290097921711
  0.6013658300455944  0.3676936748206572  0.5200253208253542
  0.6808623033497625  0.5352982899545182  0.5341978217068899
  0.6258424959501738  0.5094780168992727  0.6389897206800796
  0.6101755396913546  0.4681261796960712  0.3605282707674888
  0.5068164922239475  0.3970750873311459  0.3600127147983798
  0.4637460326313700  0.5717634232503030  0.3101753483356688
  0.5836059645429046  0.6842435419733377  0.5887360986501804
  0.4480399428723203  0.5922046710040973  0.6796004096713801
  0.3984526309275225  0.6687693883687800  0.5998627022322509
  0.3148831484884980  0.5037812194922395  0.5849142763322419
  0.3335177300930781  0.4824000189352091  0.4026617479281356
  0.3269032006552806  0.6004633380184927  0.4282905305897557
  0.4890859417478168  0.7137481991250212  0.4287541025089823
  0.5994087708962752  0.6603030755774384  0.4012542014929798
 
  0.00000000E+00  0.00000000E+00  0.00000000E+00
  0.00000000E+00  0.00000000E+00  0.00000000E+00
  0.00000000E+00  0.00000000E+00  0.00000000E+00
  0.00000000E+00  0.00000000E+00  0.00000000E+00
  0.00000000E+00  0.00000000E+00  0.00000000E+00
  0.00000000E+00  0.00000000E+00  0.00000000E+00
  0.00000000E+00  0.00000000E+00  0.00000000E+00
  0.00000000E+00  0.00000000E+00  0.00000000E+00
  0.00000000E+00  0.00000000E+00  0.00000000E+00
  0.00000000E+00  0.00000000E+00  0.00000000E+00
  0.00000000E+00  0.00000000E+00  0.00000000E+00
  0.00000000E+00  0.00000000E+00  0.00000000E+00
  0.00000000E+00  0.00000000E+00  0.00000000E+00
  0.00000000E+00  0.00000000E+00  0.00000000E+00
  0.00000000E+00  0.00000000E+00  0.00000000E+00
  0.00000000E+00  0.00000000E+00  0.00000000E+00
  0.00000000E+00  0.00000000E+00  0.00000000E+00
  0.00000000E+00  0.00000000E+00  0.00000000E+00
  0.00000000E+00  0.00000000E+00  0.00000000E+00
  0.00000000E+00  0.00000000E+00  0.00000000E+00
  0.00000000E+00  0.00000000E+00  0.00000000E+00
  0.00000000E+00  0.00000000E+00  0.00000000E+00
  0.00000000E+00  0.00000000E+00  0.00000000E+00
  0.00000000E+00  0.00000000E+00  0.00000000E+00
  0.00000000E+00  0.00000000E+00  0.00000000E+00
  0.00000000E+00  0.00000000E+00  0.00000000E+00
