SiGeH16                                 
   1.00000000000000     
    20.0000000000000000    0.0000000000000000    0.0000000000000000
     0.0000000000000000   20.0000000000000000    0.0000000000000000
     0.0000000000000000    0.0000000000000000   20.0000000000000000
   Si   Ge   H 
     6     4    16
Direct
  0.4756978642633413  0.5559781080207752  0.3860924222230569
  0.3711352681210740  0.5385586001811082  0.4373293415497642
  0.5408713863287624  0.4585544214573735  0.3953734312948047
  0.5306891644126763  0.6473805655406408  0.4359509715190013
  0.3843642861911161  0.5134429455800710  0.5514118150777473
  0.4493511280650161  0.4162438315038440  0.5637779936054349
  0.5565121482061992  0.4317429988572021  0.5114063351995602
  0.5477070567282778  0.6260917225680904  0.5529757336039239
  0.6154726985703090  0.5246599908078148  0.5658312420155741
  0.4386762005724124  0.6060492061275307  0.6056253409735646
  0.4144198177460601  0.3578812461351789  0.5321776608384047
  0.4589036408496467  0.4006610284301407  0.6364033172296584
  0.5989519963417264  0.3665500146967060  0.5183103947839122
  0.6856275505485618  0.5345365615275461  0.5333960083522676
  0.6264926531352332  0.5090117721201783  0.6413320749023734
  0.6074067130965285  0.4686597237710748  0.3625535090034953
  0.5065601930306056  0.4016378602260929  0.3607466622200042
  0.4645969979287262  0.5712181059576584  0.3133679234825452
  0.5830747575376114  0.6867703209541799  0.5871797934004016
  0.4483208883528847  0.5913322294336145  0.6814986532175938
  0.3945570701332509  0.6700307899619093  0.5999311184668081
  0.3169065616368220  0.5027386112343355  0.5826660562607791
  0.3355439386105173  0.4822830791019055  0.4028421649893927
  0.3289630291012957  0.6000499714284774  0.4298737669339411
  0.4894740161534607  0.7093857869119925  0.4274712930747745
  0.5966929743378775  0.6589505074645635  0.4023919757812123
 
  0.00000000E+00  0.00000000E+00  0.00000000E+00
  0.00000000E+00  0.00000000E+00  0.00000000E+00
  0.00000000E+00  0.00000000E+00  0.00000000E+00
  0.00000000E+00  0.00000000E+00  0.00000000E+00
  0.00000000E+00  0.00000000E+00  0.00000000E+00
  0.00000000E+00  0.00000000E+00  0.00000000E+00
  0.00000000E+00  0.00000000E+00  0.00000000E+00
  0.00000000E+00  0.00000000E+00  0.00000000E+00
  0.00000000E+00  0.00000000E+00  0.00000000E+00
  0.00000000E+00  0.00000000E+00  0.00000000E+00
  0.00000000E+00  0.00000000E+00  0.00000000E+00
  0.00000000E+00  0.00000000E+00  0.00000000E+00
  0.00000000E+00  0.00000000E+00  0.00000000E+00
  0.00000000E+00  0.00000000E+00  0.00000000E+00
  0.00000000E+00  0.00000000E+00  0.00000000E+00
  0.00000000E+00  0.00000000E+00  0.00000000E+00
  0.00000000E+00  0.00000000E+00  0.00000000E+00
  0.00000000E+00  0.00000000E+00  0.00000000E+00
  0.00000000E+00  0.00000000E+00  0.00000000E+00
  0.00000000E+00  0.00000000E+00  0.00000000E+00
  0.00000000E+00  0.00000000E+00  0.00000000E+00
  0.00000000E+00  0.00000000E+00  0.00000000E+00
  0.00000000E+00  0.00000000E+00  0.00000000E+00
  0.00000000E+00  0.00000000E+00  0.00000000E+00
  0.00000000E+00  0.00000000E+00  0.00000000E+00
  0.00000000E+00  0.00000000E+00  0.00000000E+00
