SiGeH16                                 
   1.00000000000000     
    20.0000000000000000    0.0000000000000000    0.0000000000000000
     0.0000000000000000   20.0000000000000000    0.0000000000000000
     0.0000000000000000    0.0000000000000000   20.0000000000000000
   Si   Ge   H 
     6     4    16
Direct
  0.4755508735570615  0.5561251410724921  0.3854461854910838
  0.3702798025812157  0.5390332245282252  0.4352085848960883
  0.5408033275484669  0.4589159992227536  0.3959566978816227
  0.5306962382305400  0.6468219613252799  0.4362802240193773
  0.6143512553674597  0.5246716357102059  0.5654552726554769
  0.4505801002008383  0.4146156963604071  0.5643571950989639
  0.3831386069513911  0.5132214256660532  0.5519300062859642
  0.5572831564986984  0.4332417513599793  0.5122187979562085
  0.5486639123282160  0.6244529797030935  0.5530370044179875
  0.4396519557866085  0.6073605395563177  0.6068330801033497
  0.4166328602557243  0.3560920454854326  0.5321492170936892
  0.4598441874718446  0.3987954637712576  0.6369481755077899
  0.6006876886782351  0.3685959876097940  0.5184113604815010
  0.6816694647494188  0.5341783330400673  0.5339376205511925
  0.6248066816775477  0.5096685909702288  0.6380524763204392
  0.6072289487125531  0.4688861461905063  0.3627966233538018
  0.5068028219851328  0.4013764925310070  0.3621364070459734
  0.4657419305509976  0.5714481513397587  0.3125153329190056
  0.5849880890849661  0.6850217575669078  0.5864493534903943
  0.4489550552289359  0.5927449610594238  0.6827770601766190
  0.3963746300035211  0.6718388232833590  0.6006133032013707
  0.3130274199029017  0.5022738533994513  0.5846255455890272
  0.3347505102863906  0.4827402919258645  0.4007365919125476
  0.3281674881560264  0.6005348624927507  0.4277477597030881
  0.4897345893678491  0.7090895751625368  0.4288088134900221
  0.5965584048374666  0.6586543096668507  0.4014883103574056
 
  0.00000000E+00  0.00000000E+00  0.00000000E+00
  0.00000000E+00  0.00000000E+00  0.00000000E+00
  0.00000000E+00  0.00000000E+00  0.00000000E+00
  0.00000000E+00  0.00000000E+00  0.00000000E+00
  0.00000000E+00  0.00000000E+00  0.00000000E+00
  0.00000000E+00  0.00000000E+00  0.00000000E+00
  0.00000000E+00  0.00000000E+00  0.00000000E+00
  0.00000000E+00  0.00000000E+00  0.00000000E+00
  0.00000000E+00  0.00000000E+00  0.00000000E+00
  0.00000000E+00  0.00000000E+00  0.00000000E+00
  0.00000000E+00  0.00000000E+00  0.00000000E+00
  0.00000000E+00  0.00000000E+00  0.00000000E+00
  0.00000000E+00  0.00000000E+00  0.00000000E+00
  0.00000000E+00  0.00000000E+00  0.00000000E+00
  0.00000000E+00  0.00000000E+00  0.00000000E+00
  0.00000000E+00  0.00000000E+00  0.00000000E+00
  0.00000000E+00  0.00000000E+00  0.00000000E+00
  0.00000000E+00  0.00000000E+00  0.00000000E+00
  0.00000000E+00  0.00000000E+00  0.00000000E+00
  0.00000000E+00  0.00000000E+00  0.00000000E+00
  0.00000000E+00  0.00000000E+00  0.00000000E+00
  0.00000000E+00  0.00000000E+00  0.00000000E+00
  0.00000000E+00  0.00000000E+00  0.00000000E+00
  0.00000000E+00  0.00000000E+00  0.00000000E+00
  0.00000000E+00  0.00000000E+00  0.00000000E+00
  0.00000000E+00  0.00000000E+00  0.00000000E+00
