SiGeH16                                 
   1.00000000000000     
    20.0000000000000000    0.0000000000000000    0.0000000000000000
     0.0000000000000000   20.0000000000000000    0.0000000000000000
     0.0000000000000000    0.0000000000000000   20.0000000000000000
   Si   Ge   H 
     6     4    16
Direct
  0.4738376558803379  0.5562742687125717  0.3841541299789504
  0.3695637839554441  0.5393557512448122  0.4351900192380560
  0.5565905102426598  0.4318405327376324  0.5129874540537421
  0.5458003601836100  0.6243626276691612  0.5547897710659947
  0.4520966056033114  0.4152453226902346  0.5636739228632274
  0.4413354481795414  0.6072582471211554  0.6053691455090708
  0.5407488727864496  0.4572679691088583  0.3966349440070558
  0.5300698732968858  0.6477833159596338  0.4379996651707062
  0.3860548582621237  0.5149727671779816  0.5517363526131643
  0.6119646576577388  0.5246456199342904  0.5654841745423351
  0.4163259478928004  0.3577432334647799  0.5316519685996365
  0.4605023268313070  0.3995527165175939  0.6364411298511933
  0.5991337963384584  0.3703627349287996  0.5195749113576624
  0.6815856513566831  0.5357411652229424  0.5323282937129051
  0.6245657836422218  0.5090095919478728  0.6407643931464465
  0.6099666123177725  0.4679899019756926  0.3625259664289235
  0.5064417164706170  0.3972512248324410  0.3607021432985440
  0.4652714594822810  0.5716328083314295  0.3111927930577312
  0.5816759161985318  0.6817770969030892  0.5871832312430976
  0.4496952336009125  0.5922573665773669  0.6782864965682093
  0.3988860011110876  0.6686672167762608  0.5991634008861804
  0.3165294373737573  0.5037410330085258  0.5855522290859858
  0.3334890831804633  0.4822954154127478  0.4027171516294391
  0.3268630610834658  0.6005287462461150  0.4283797787358539
  0.4887462813753475  0.7132587545545210  0.4293033648205961
  0.5992290656961848  0.6595845709434955  0.4041301685352891
 
  0.00000000E+00  0.00000000E+00  0.00000000E+00
  0.00000000E+00  0.00000000E+00  0.00000000E+00
  0.00000000E+00  0.00000000E+00  0.00000000E+00
  0.00000000E+00  0.00000000E+00  0.00000000E+00
  0.00000000E+00  0.00000000E+00  0.00000000E+00
  0.00000000E+00  0.00000000E+00  0.00000000E+00
  0.00000000E+00  0.00000000E+00  0.00000000E+00
  0.00000000E+00  0.00000000E+00  0.00000000E+00
  0.00000000E+00  0.00000000E+00  0.00000000E+00
  0.00000000E+00  0.00000000E+00  0.00000000E+00
  0.00000000E+00  0.00000000E+00  0.00000000E+00
  0.00000000E+00  0.00000000E+00  0.00000000E+00
  0.00000000E+00  0.00000000E+00  0.00000000E+00
  0.00000000E+00  0.00000000E+00  0.00000000E+00
  0.00000000E+00  0.00000000E+00  0.00000000E+00
  0.00000000E+00  0.00000000E+00  0.00000000E+00
  0.00000000E+00  0.00000000E+00  0.00000000E+00
  0.00000000E+00  0.00000000E+00  0.00000000E+00
  0.00000000E+00  0.00000000E+00  0.00000000E+00
  0.00000000E+00  0.00000000E+00  0.00000000E+00
  0.00000000E+00  0.00000000E+00  0.00000000E+00
  0.00000000E+00  0.00000000E+00  0.00000000E+00
  0.00000000E+00  0.00000000E+00  0.00000000E+00
  0.00000000E+00  0.00000000E+00  0.00000000E+00
  0.00000000E+00  0.00000000E+00  0.00000000E+00
  0.00000000E+00  0.00000000E+00  0.00000000E+00
