SiGeH16                                 
   1.00000000000000     
    20.0000000000000000    0.0000000000000000    0.0000000000000000
     0.0000000000000000   20.0000000000000000    0.0000000000000000
     0.0000000000000000    0.0000000000000000   20.0000000000000000
   Si   Ge   H 
     6     4    16
Direct
  0.4757368325918989  0.5558384124000000  0.3866820782804936
  0.3706023163362389  0.5392221588345976  0.4371150630362521
  0.5412929357699525  0.4585616947714968  0.3973178545567535
  0.5305624311195629  0.6475404081508174  0.4359024439873949
  0.3831734108298122  0.5148523224184558  0.5513343390266172
  0.5578611982805555  0.4323005588091391  0.5106044492600930
  0.5473858204903692  0.6255037838738460  0.5527032157694478
  0.6145663271758579  0.5234387558772511  0.5646197571079909
  0.4509186351033279  0.4162510420327976  0.5630937049404068
  0.4382592088246113  0.6067532932466122  0.6057354501231202
  0.4146050149255203  0.3554095738857086  0.5306763351089430
  0.4605824902022491  0.3994862144269504  0.6385346066537565
  0.5986423926358810  0.3695813288687688  0.5170126415952936
  0.6848932897276825  0.5343992862053497  0.5328962927685694
  0.6254072329834059  0.5077659582470773  0.6401445611923577
  0.6073558888998605  0.4689680062733501  0.3634558865980893
  0.5067561283915865  0.4015581616458448  0.3629992482101869
  0.4653625769972578  0.5699168282928397  0.3136196970292957
  0.5837256237055826  0.6853522325335888  0.5872918678214063
  0.4481101830569543  0.5915427700654448  0.6814908712346437
  0.3950412988202530  0.6713846516265534  0.6005063056110913
  0.3160647594650854  0.5031107640311347  0.5828971478307565
  0.3354583552725856  0.4825054070577366  0.4029366387479740
  0.3285745854633149  0.6006892603247351  0.4284643639556620
  0.4894095930323985  0.7095684923342844  0.4274457272215386
  0.5966214698981958  0.6588986337656166  0.4014364523318625
 
  0.00000000E+00  0.00000000E+00  0.00000000E+00
  0.00000000E+00  0.00000000E+00  0.00000000E+00
  0.00000000E+00  0.00000000E+00  0.00000000E+00
  0.00000000E+00  0.00000000E+00  0.00000000E+00
  0.00000000E+00  0.00000000E+00  0.00000000E+00
  0.00000000E+00  0.00000000E+00  0.00000000E+00
  0.00000000E+00  0.00000000E+00  0.00000000E+00
  0.00000000E+00  0.00000000E+00  0.00000000E+00
  0.00000000E+00  0.00000000E+00  0.00000000E+00
  0.00000000E+00  0.00000000E+00  0.00000000E+00
  0.00000000E+00  0.00000000E+00  0.00000000E+00
  0.00000000E+00  0.00000000E+00  0.00000000E+00
  0.00000000E+00  0.00000000E+00  0.00000000E+00
  0.00000000E+00  0.00000000E+00  0.00000000E+00
  0.00000000E+00  0.00000000E+00  0.00000000E+00
  0.00000000E+00  0.00000000E+00  0.00000000E+00
  0.00000000E+00  0.00000000E+00  0.00000000E+00
  0.00000000E+00  0.00000000E+00  0.00000000E+00
  0.00000000E+00  0.00000000E+00  0.00000000E+00
  0.00000000E+00  0.00000000E+00  0.00000000E+00
  0.00000000E+00  0.00000000E+00  0.00000000E+00
  0.00000000E+00  0.00000000E+00  0.00000000E+00
  0.00000000E+00  0.00000000E+00  0.00000000E+00
  0.00000000E+00  0.00000000E+00  0.00000000E+00
  0.00000000E+00  0.00000000E+00  0.00000000E+00
  0.00000000E+00  0.00000000E+00  0.00000000E+00
