SiGeH16                                 
   1.00000000000000     
    20.0000000000000000    0.0000000000000000    0.0000000000000000
     0.0000000000000000   20.0000000000000000    0.0000000000000000
     0.0000000000000000    0.0000000000000000   20.0000000000000000
   Si   Ge   H 
     6     4    16
Direct
  0.4746946444981647  0.5548225261943607  0.3844398301657747
  0.3697447408467862  0.5384666835780526  0.4348797026100992
  0.5405634786863984  0.4581936312341087  0.3955201391592579
  0.5486409286898880  0.6237158290312343  0.5545627140520655
  0.6129532052612746  0.5260603210878587  0.5654561505607367
  0.4504835555819828  0.4144964342375563  0.5642493759530999
  0.5311457699432780  0.6466892041745889  0.4378831618019490
  0.3837487163779433  0.5134114715136217  0.5516211101732886
  0.5568980431129077  0.4339305202398775  0.5121077456240404
  0.4414244357430601  0.6071471057973487  0.6061851004533080
  0.4165236493825948  0.3559715231005189  0.5321050097011998
  0.4598560348988440  0.3988470529038959  0.6368672713624169
  0.6012041319338867  0.3699949935536836  0.5189519098069203
  0.6801195056969006  0.5357958569975553  0.5336873558995484
  0.6239747331543908  0.5100591438825197  0.6378202051719314
  0.6070597302056875  0.4686999564824629  0.3626706398925806
  0.5074467198828244  0.3998748640559912  0.3620881985777906
  0.4654099875229560  0.5711426554516230  0.3117299874909307
  0.5836895392625707  0.6818680838285334  0.5866483583960698
  0.4494562756152768  0.5923321119725691  0.6822465880950426
  0.3981917637126908  0.6716019390136794  0.5996060433540806
  0.3139136770953934  0.5034866596909473  0.5851212784993407
  0.3332900089315703  0.4822606298627222  0.4012376257452069
  0.3281018643967564  0.6003050031119923  0.4276090252556876
  0.4889616255114484  0.7116740950001816  0.4298995414062963
  0.5994732340545182  0.6595517040025215  0.4027229307913345
 
  0.00000000E+00  0.00000000E+00  0.00000000E+00
  0.00000000E+00  0.00000000E+00  0.00000000E+00
  0.00000000E+00  0.00000000E+00  0.00000000E+00
  0.00000000E+00  0.00000000E+00  0.00000000E+00
  0.00000000E+00  0.00000000E+00  0.00000000E+00
  0.00000000E+00  0.00000000E+00  0.00000000E+00
  0.00000000E+00  0.00000000E+00  0.00000000E+00
  0.00000000E+00  0.00000000E+00  0.00000000E+00
  0.00000000E+00  0.00000000E+00  0.00000000E+00
  0.00000000E+00  0.00000000E+00  0.00000000E+00
  0.00000000E+00  0.00000000E+00  0.00000000E+00
  0.00000000E+00  0.00000000E+00  0.00000000E+00
  0.00000000E+00  0.00000000E+00  0.00000000E+00
  0.00000000E+00  0.00000000E+00  0.00000000E+00
  0.00000000E+00  0.00000000E+00  0.00000000E+00
  0.00000000E+00  0.00000000E+00  0.00000000E+00
  0.00000000E+00  0.00000000E+00  0.00000000E+00
  0.00000000E+00  0.00000000E+00  0.00000000E+00
  0.00000000E+00  0.00000000E+00  0.00000000E+00
  0.00000000E+00  0.00000000E+00  0.00000000E+00
  0.00000000E+00  0.00000000E+00  0.00000000E+00
  0.00000000E+00  0.00000000E+00  0.00000000E+00
  0.00000000E+00  0.00000000E+00  0.00000000E+00
  0.00000000E+00  0.00000000E+00  0.00000000E+00
  0.00000000E+00  0.00000000E+00  0.00000000E+00
  0.00000000E+00  0.00000000E+00  0.00000000E+00
