SiGeH16                                 
   1.00000000000000     
    20.0000000000000000    0.0000000000000000    0.0000000000000000
     0.0000000000000000   20.0000000000000000    0.0000000000000000
     0.0000000000000000    0.0000000000000000   20.0000000000000000
   Si   Ge   H 
     6     4    16
Direct
  0.4749084141543634  0.5545024950797171  0.3858261053059309
  0.3700403078708732  0.5386336044999496  0.4367497522300425
  0.5410471153494854  0.4578275373854126  0.3968758788807634
  0.3838401370468318  0.5150891855984128  0.5510500018945308
  0.5575521452387662  0.4330040261374037  0.5105445309507957
  0.5473710164776833  0.6247154734694291  0.5542429517923537
  0.5309407390506635  0.6475098198294020  0.4375763986841150
  0.6131940463595811  0.5248411686567565  0.5645850923500291
  0.4507712824455368  0.4160112791033015  0.5629564717758626
  0.4400600339211636  0.6066507333423417  0.6049592148834293
  0.4144556267729413  0.3551447943342012  0.5305664556576701
  0.4606142064300016  0.3995884543212469  0.6384489133525122
  0.5991555863234552  0.3709783168366272  0.5177339636164575
  0.6833705498887213  0.5358229429697445  0.5325803712654960
  0.6244616608862827  0.5081667115435664  0.6398198098072427
  0.6072379826390559  0.4686608095412694  0.3633429622941975
  0.5074292707707357  0.4000397372330013  0.3628880437331716
  0.4651356527991837  0.5697661842982882  0.3129746136399092
  0.5822661960661435  0.6822540365457499  0.5873579481189211
  0.4488115527705929  0.5911653159083201  0.6807796209501760
  0.3968391232274229  0.6712316531739830  0.5994089807323348
  0.3170667184478333  0.5042755094030440  0.5835107395003050
  0.3339131167728766  0.4820340489323911  0.4033422570357246
  0.3283794562986841  0.6004183923710329  0.4283685800221306
  0.4885549103262576  0.7122683892563657  0.4286527421983877
  0.5995531516648427  0.6597993802290461  0.4017745993275219
 
  0.00000000E+00  0.00000000E+00  0.00000000E+00
  0.00000000E+00  0.00000000E+00  0.00000000E+00
  0.00000000E+00  0.00000000E+00  0.00000000E+00
  0.00000000E+00  0.00000000E+00  0.00000000E+00
  0.00000000E+00  0.00000000E+00  0.00000000E+00
  0.00000000E+00  0.00000000E+00  0.00000000E+00
  0.00000000E+00  0.00000000E+00  0.00000000E+00
  0.00000000E+00  0.00000000E+00  0.00000000E+00
  0.00000000E+00  0.00000000E+00  0.00000000E+00
  0.00000000E+00  0.00000000E+00  0.00000000E+00
  0.00000000E+00  0.00000000E+00  0.00000000E+00
  0.00000000E+00  0.00000000E+00  0.00000000E+00
  0.00000000E+00  0.00000000E+00  0.00000000E+00
  0.00000000E+00  0.00000000E+00  0.00000000E+00
  0.00000000E+00  0.00000000E+00  0.00000000E+00
  0.00000000E+00  0.00000000E+00  0.00000000E+00
  0.00000000E+00  0.00000000E+00  0.00000000E+00
  0.00000000E+00  0.00000000E+00  0.00000000E+00
  0.00000000E+00  0.00000000E+00  0.00000000E+00
  0.00000000E+00  0.00000000E+00  0.00000000E+00
  0.00000000E+00  0.00000000E+00  0.00000000E+00
  0.00000000E+00  0.00000000E+00  0.00000000E+00
  0.00000000E+00  0.00000000E+00  0.00000000E+00
  0.00000000E+00  0.00000000E+00  0.00000000E+00
  0.00000000E+00  0.00000000E+00  0.00000000E+00
  0.00000000E+00  0.00000000E+00  0.00000000E+00
