SiGeH16                                 
   1.00000000000000     
    20.0000000000000000    0.0000000000000000    0.0000000000000000
     0.0000000000000000   20.0000000000000000    0.0000000000000000
     0.0000000000000000    0.0000000000000000   20.0000000000000000
   Si   Ge   H 
     6     4    16
Direct
  0.4747570539215786  0.5545860793464570  0.3852234951812576
  0.3701508137622085  0.5387934894313418  0.4368635127302127
  0.5413404273143385  0.4584519787161341  0.3974109494834437
  0.3831919567218591  0.5149591749469522  0.5512386997530925
  0.5582586303743327  0.4344749055606059  0.5112709945042013
  0.6139115940018698  0.5232854622468466  0.5646087455735298
  0.5311424855015972  0.6479724337072952  0.4356870454981063
  0.5486053555794399  0.6236582046956087  0.5546375009895428
  0.4512342152809552  0.4167028168355813  0.5631804532672362
  0.4385262689590732  0.6063820850617176  0.6062054135928534
  0.4159035641211304  0.3555812354781551  0.5302192594404218
  0.4606478080405338  0.3997217478758728  0.6385964003456905
  0.5991440550512692  0.3718447739615982  0.5177221473639193
  0.6812756766260435  0.5339326363684052  0.5334984753722551
  0.6243488935834947  0.5070420427104949  0.6369926294547312
  0.6072593098011509  0.4690135276325904  0.3633337875527971
  0.5077817896972263  0.4000659268634266  0.3644818276569239
  0.4642591754743535  0.5684981159765528  0.3122045564677194
  0.5849368198815839  0.6835533523426705  0.5891563151920067
  0.4470128663207547  0.5910789725247838  0.6821232435372337
  0.3963248095312863  0.6715929102624898  0.6002150863269335
  0.3160642057499530  0.5032108715278554  0.5827182123270518
  0.3340785557495636  0.4821493216491248  0.4034686531253016
  0.3284350960265527  0.6004760636985864  0.4282619764449294
  0.4887803201565859  0.7128531507599689  0.4279156530373598
  0.5995982527712869  0.6605187198188887  0.3996819657812529
 
  0.00000000E+00  0.00000000E+00  0.00000000E+00
  0.00000000E+00  0.00000000E+00  0.00000000E+00
  0.00000000E+00  0.00000000E+00  0.00000000E+00
  0.00000000E+00  0.00000000E+00  0.00000000E+00
  0.00000000E+00  0.00000000E+00  0.00000000E+00
  0.00000000E+00  0.00000000E+00  0.00000000E+00
  0.00000000E+00  0.00000000E+00  0.00000000E+00
  0.00000000E+00  0.00000000E+00  0.00000000E+00
  0.00000000E+00  0.00000000E+00  0.00000000E+00
  0.00000000E+00  0.00000000E+00  0.00000000E+00
  0.00000000E+00  0.00000000E+00  0.00000000E+00
  0.00000000E+00  0.00000000E+00  0.00000000E+00
  0.00000000E+00  0.00000000E+00  0.00000000E+00
  0.00000000E+00  0.00000000E+00  0.00000000E+00
  0.00000000E+00  0.00000000E+00  0.00000000E+00
  0.00000000E+00  0.00000000E+00  0.00000000E+00
  0.00000000E+00  0.00000000E+00  0.00000000E+00
  0.00000000E+00  0.00000000E+00  0.00000000E+00
  0.00000000E+00  0.00000000E+00  0.00000000E+00
  0.00000000E+00  0.00000000E+00  0.00000000E+00
  0.00000000E+00  0.00000000E+00  0.00000000E+00
  0.00000000E+00  0.00000000E+00  0.00000000E+00
  0.00000000E+00  0.00000000E+00  0.00000000E+00
  0.00000000E+00  0.00000000E+00  0.00000000E+00
  0.00000000E+00  0.00000000E+00  0.00000000E+00
  0.00000000E+00  0.00000000E+00  0.00000000E+00
