SiGeH16                                 
   1.00000000000000     
    20.0000000000000000    0.0000000000000000    0.0000000000000000
     0.0000000000000000   20.0000000000000000    0.0000000000000000
     0.0000000000000000    0.0000000000000000   20.0000000000000000
   Si   Ge   H 
     6     4    16
Direct
  0.4748109528849938  0.5547024606494659  0.3851560003533763
  0.3705737725204301  0.5379807019270260  0.4369571131546195
  0.5405981826973587  0.4578380810578153  0.3949859311798676
  0.3849543580459311  0.5136393991301489  0.5511021366787574
  0.5476599816420133  0.6253187612973576  0.5544575724770411
  0.4492801915728322  0.4161064154990726  0.5636246314890130
  0.5310572162069249  0.6473294966421648  0.4375990211748615
  0.5561533919982722  0.4324322311580460  0.5113312945889561
  0.6140764179041369  0.5260265768810513  0.5658469605133192
  0.4404517129472794  0.6059286990355233  0.6049188078888079
  0.4144417341487241  0.3577030666928493  0.5320989966725875
  0.4590087288602405  0.4006874303186478  0.6362955964783339
  0.5995799711853920  0.3679746298797468  0.5188997510829267
  0.6840388756531723  0.5359420760436961  0.5330614926922479
  0.6255769045756594  0.5092316870141431  0.6410379395100279
  0.6072668495563747  0.4684616823913004  0.3624947383292039
  0.5072061530285126  0.4000887528993218  0.3608028248158561
  0.4643526281540531  0.5709276602984232  0.3126033215474422
  0.5816524417651863  0.6835966819793740  0.5872804002062963
  0.4489071723846152  0.5910238375810692  0.6809060978250301
  0.3964285940922423  0.6699288253268634  0.5989243204424213
  0.3178030611533345  0.5039538019975893  0.5832463891867690
  0.3340263114860704  0.4818485147551854  0.4032815522455380
  0.3288502442873380  0.5998083887877925  0.4296639674603284
  0.4886481119613251  0.7120683211091503  0.4286334469449784
  0.5995660392875735  0.6598518196471801  0.4017066950613759
 
  0.00000000E+00  0.00000000E+00  0.00000000E+00
  0.00000000E+00  0.00000000E+00  0.00000000E+00
  0.00000000E+00  0.00000000E+00  0.00000000E+00
  0.00000000E+00  0.00000000E+00  0.00000000E+00
  0.00000000E+00  0.00000000E+00  0.00000000E+00
  0.00000000E+00  0.00000000E+00  0.00000000E+00
  0.00000000E+00  0.00000000E+00  0.00000000E+00
  0.00000000E+00  0.00000000E+00  0.00000000E+00
  0.00000000E+00  0.00000000E+00  0.00000000E+00
  0.00000000E+00  0.00000000E+00  0.00000000E+00
  0.00000000E+00  0.00000000E+00  0.00000000E+00
  0.00000000E+00  0.00000000E+00  0.00000000E+00
  0.00000000E+00  0.00000000E+00  0.00000000E+00
  0.00000000E+00  0.00000000E+00  0.00000000E+00
  0.00000000E+00  0.00000000E+00  0.00000000E+00
  0.00000000E+00  0.00000000E+00  0.00000000E+00
  0.00000000E+00  0.00000000E+00  0.00000000E+00
  0.00000000E+00  0.00000000E+00  0.00000000E+00
  0.00000000E+00  0.00000000E+00  0.00000000E+00
  0.00000000E+00  0.00000000E+00  0.00000000E+00
  0.00000000E+00  0.00000000E+00  0.00000000E+00
  0.00000000E+00  0.00000000E+00  0.00000000E+00
  0.00000000E+00  0.00000000E+00  0.00000000E+00
  0.00000000E+00  0.00000000E+00  0.00000000E+00
  0.00000000E+00  0.00000000E+00  0.00000000E+00
  0.00000000E+00  0.00000000E+00  0.00000000E+00
