SiGeH16                                 
   1.00000000000000     
    20.0000000000000000    0.0000000000000000    0.0000000000000000
     0.0000000000000000   20.0000000000000000    0.0000000000000000
     0.0000000000000000    0.0000000000000000   20.0000000000000000
   Si   Ge   H 
     6     4    16
Direct
  0.3684943910774052  0.5390991339864186  0.4361039527479207
  0.5420307581406547  0.4570885907208151  0.3956434938599429
  0.5313035795896113  0.6484947554906455  0.4371974892422514
  0.6135737566162192  0.5247855038532521  0.5652726732826068
  0.4507684842923325  0.4153779863763774  0.5641791063505082
  0.4400390616303440  0.6067912763016778  0.6057417313916531
  0.4753950812147991  0.5563757517270957  0.3840914700410138
  0.3841080831560433  0.5146576648890573  0.5526825818246408
  0.5576962691859038  0.4326232283626723  0.5122094485322464
  0.5469607717165914  0.6240945217768825  0.5537767191073826
  0.4159023934390689  0.3575045527222969  0.5319142220252147
  0.4600882515181937  0.3993179067939820  0.6367246209947837
  0.6010536203831478  0.3680341054928746  0.5197048833644757
  0.6806313890669458  0.5353950435801735  0.5336864880260492
  0.6242455901070016  0.5096406039370791  0.6378210354083080
  0.6084969700496217  0.4671540288879470  0.3626577883265156
  0.5079238452184072  0.3995542716686487  0.3619879154832830
  0.4652253025755115  0.5722687660239032  0.3082505479119604
  0.5833317328038845  0.6840318575147464  0.5883019312988864
  0.4492702026766864  0.5923100955508787  0.6786297112502382
  0.3984478485419700  0.6687357991433842  0.5994917538044646
  0.3145583897112374  0.5034199300573761  0.5865070332779183
  0.3329457614531606  0.4822368673744819  0.4027882341290265
  0.3263200003097424  0.6004934464148519  0.4284525185804711
  0.4904729513789832  0.7107861104533342  0.4295454093145565
  0.5976855141465265  0.6601282008991234  0.4035542404236784
 
  0.00000000E+00  0.00000000E+00  0.00000000E+00
  0.00000000E+00  0.00000000E+00  0.00000000E+00
  0.00000000E+00  0.00000000E+00  0.00000000E+00
  0.00000000E+00  0.00000000E+00  0.00000000E+00
  0.00000000E+00  0.00000000E+00  0.00000000E+00
  0.00000000E+00  0.00000000E+00  0.00000000E+00
  0.00000000E+00  0.00000000E+00  0.00000000E+00
  0.00000000E+00  0.00000000E+00  0.00000000E+00
  0.00000000E+00  0.00000000E+00  0.00000000E+00
  0.00000000E+00  0.00000000E+00  0.00000000E+00
  0.00000000E+00  0.00000000E+00  0.00000000E+00
  0.00000000E+00  0.00000000E+00  0.00000000E+00
  0.00000000E+00  0.00000000E+00  0.00000000E+00
  0.00000000E+00  0.00000000E+00  0.00000000E+00
  0.00000000E+00  0.00000000E+00  0.00000000E+00
  0.00000000E+00  0.00000000E+00  0.00000000E+00
  0.00000000E+00  0.00000000E+00  0.00000000E+00
  0.00000000E+00  0.00000000E+00  0.00000000E+00
  0.00000000E+00  0.00000000E+00  0.00000000E+00
  0.00000000E+00  0.00000000E+00  0.00000000E+00
  0.00000000E+00  0.00000000E+00  0.00000000E+00
  0.00000000E+00  0.00000000E+00  0.00000000E+00
  0.00000000E+00  0.00000000E+00  0.00000000E+00
  0.00000000E+00  0.00000000E+00  0.00000000E+00
  0.00000000E+00  0.00000000E+00  0.00000000E+00
  0.00000000E+00  0.00000000E+00  0.00000000E+00
