SiGeH16                                 
   1.00000000000000     
    20.0000000000000000    0.0000000000000000    0.0000000000000000
     0.0000000000000000   20.0000000000000000    0.0000000000000000
     0.0000000000000000    0.0000000000000000   20.0000000000000000
   Si   Ge   H 
     6     4    16
Direct
  0.3684943910774044  0.5390991339864201  0.4361039527479174
  0.5420307581406528  0.4570885907208171  0.3956434938599463
  0.5313035795896113  0.6484947554906437  0.4371974892422520
  0.6135737566162222  0.5247855038532512  0.5652726732826056
  0.4507684842923303  0.4153779863763754  0.5641791063505101
  0.4400390616303458  0.6067912763016795  0.6057417313916500
  0.4753950812148000  0.5563757517270985  0.3840914700410165
  0.3841080831560462  0.5146576648890605  0.5526825818246376
  0.5576962691859015  0.4326232283626736  0.5122094485322473
  0.5469607717165892  0.6240945217768846  0.5537767191073814
  0.4159023934390688  0.3575045527222994  0.5319142220252149
  0.4600882515181927  0.3993179067939845  0.6367246209947806
  0.6010536203831478  0.3680341054928727  0.5197048833644746
  0.6806313890669449  0.5353950435801744  0.5336864880260517
  0.6242455901070025  0.5096406039370790  0.6378210354083083
  0.6084969700496242  0.4671540288879473  0.3626577883265142
  0.5079238452184044  0.3995542716686474  0.3619879154832830
  0.4652253025755139  0.5722687660239063  0.3082505479119610
  0.5833317328038871  0.6840318575147483  0.5883019312988874
  0.4492702026766863  0.5923100955508810  0.6786297112502403
  0.3984478485419690  0.6687357991433848  0.5994917538044637
  0.3145583897112393  0.5034199300573744  0.5865070332779164
  0.3329457614531617  0.4822368673744853  0.4027882341290271
  0.3263200003097402  0.6004934464148529  0.4284525185804725
  0.4904729513789828  0.7107861104533376  0.4295454093145587
  0.5976855141465243  0.6601282008991245  0.4045542404236789
 
  0.00000000E+00  0.00000000E+00  0.00000000E+00
  0.00000000E+00  0.00000000E+00  0.00000000E+00
  0.00000000E+00  0.00000000E+00  0.00000000E+00
  0.00000000E+00  0.00000000E+00  0.00000000E+00
  0.00000000E+00  0.00000000E+00  0.00000000E+00
  0.00000000E+00  0.00000000E+00  0.00000000E+00
  0.00000000E+00  0.00000000E+00  0.00000000E+00
  0.00000000E+00  0.00000000E+00  0.00000000E+00
  0.00000000E+00  0.00000000E+00  0.00000000E+00
  0.00000000E+00  0.00000000E+00  0.00000000E+00
  0.00000000E+00  0.00000000E+00  0.00000000E+00
  0.00000000E+00  0.00000000E+00  0.00000000E+00
  0.00000000E+00  0.00000000E+00  0.00000000E+00
  0.00000000E+00  0.00000000E+00  0.00000000E+00
  0.00000000E+00  0.00000000E+00  0.00000000E+00
  0.00000000E+00  0.00000000E+00  0.00000000E+00
  0.00000000E+00  0.00000000E+00  0.00000000E+00
  0.00000000E+00  0.00000000E+00  0.00000000E+00
  0.00000000E+00  0.00000000E+00  0.00000000E+00
  0.00000000E+00  0.00000000E+00  0.00000000E+00
  0.00000000E+00  0.00000000E+00  0.00000000E+00
  0.00000000E+00  0.00000000E+00  0.00000000E+00
  0.00000000E+00  0.00000000E+00  0.00000000E+00
  0.00000000E+00  0.00000000E+00  0.00000000E+00
  0.00000000E+00  0.00000000E+00  0.00000000E+00
  0.00000000E+00  0.00000000E+00  0.00000000E+00
